LAMMPS (27 Jun 2024)
include lmp.in
#smiles: Cc1c(C)c(C)c(C)c(C)c1C
units real
atom_style full

dimension 3
boundary p p p  #p p m

bond_style hybrid harmonic
angle_style hybrid harmonic
dihedral_style hybrid charmm
# special_bonds amber # same as special_bonds lj 0.0 0.0 0.5000 coul 0.0 0.0 0.83333
special_bonds amber lj 0.0 0.0 0.50000 coul 0.0 0.0 0.83333 angle yes dihedral no
box tilt large

The 'box' command has been removed and will be ignored


read_data lmp.dat
Reading data file ...
  triclinic box = (0 0 0) to (30.8471 17.6224 57.5148) with tilt (0.0233 -6.027 -0.9687)
  8 by 4 by 8 MPI processor grid
  reading atoms ...
  3840 atoms
  reading velocities ...
  3840 velocities
  scanning bonds ...
  4 = max bonds/atom
  scanning angles ...
  6 = max angles/atom
  scanning dihedrals ...
  8 = max dihedrals/atom
  triclinic box = (0 0 0) to (30.8471 17.6224 57.5148) with tilt (0.0233 -6.027 -0.9687)
  8 by 4 by 8 MPI processor grid
  reading bonds ...
  3840 bonds
  reading angles ...
  6912 angles
  reading dihedrals ...
  3840 dihedrals
Finding 1-2 1-3 1-4 neighbors ...
  special bond factors lj:    0        0        0.5     
  special bond factors coul:  0        0        0.83333 
     4 = max # of 1-2 neighbors
     7 = max # of 1-3 neighbors
    17 = max # of 1-4 neighbors
  13824 = # of 1-3 neighbors before angle trim
  13824 = # of 1-3 neighbors after angle trim
    19 = max # of special neighbors
  special bonds CPU = 0.473 seconds
  read_data CPU = 0.564 seconds

neighbor 2.0 multi
neigh_modify every 2 delay 4 check yes
#neigh_modify every 2 delay 10

pair_style lj/cut/coul/long 9.0 9.0
pair_modify mix arithmetic shift no tail yes
kspace_style pppm 0.0005
kspace_modify gewald 0.29202898720871845 mesh 32 32 60 order 6

pair_coeff 1 1   0.1094000   3.3996695
pair_coeff 2 2   0.0860000   3.3996695
pair_coeff 3 3   0.0157000   2.6495328

#pair_modify mix arithmetic
thermo_style custom step temp vol press etotal pe ke epair ecoul elong evdwl ebond eangle edihed eimp emol etail #    cella cellb cellc cellalpha cellbeta cellgamma density pxx pyy pzz pxy pxy pyz
thermo_modify lost ignore flush yes

#compute peatom all pe/atom
#dump 1 all custom 1 dump.lammpstrj id type q x y z fx fy fz c_peatom element
#dump_modify 1 sort id pad 9 element C C H

#minimize 1e-5 1e-5 100 100
#run 0

variable temperature equal      300.000
variable patm equal        1.000
variable dt equal        1.000
variable trelax equal   50000.000
variable deform_steps equal       50.000
variable ele_string string "C C H"
variable strain_total equal        0.30
variable strainrate equal 2.000000e+08
variable direction1 string yz
variable direction2 string xz
replicate  5 5 3
Replication is creating a 5x5x3 = 75 times larger system...
  triclinic box = (0 0 0) to (154.2355 88.112 172.5444) with tilt (0.1165 -18.081 -2.9061)
  8 by 4 by 8 MPI processor grid
  288000 atoms
  288000 bonds
  518400 angles
  288000 dihedrals
Finding 1-2 1-3 1-4 neighbors ...
  special bond factors lj:    0        0        0.5     
  special bond factors coul:  0        0        0.83333 
     4 = max # of 1-2 neighbors
     7 = max # of 1-3 neighbors
    17 = max # of 1-4 neighbors
  1036800 = # of 1-3 neighbors before angle trim
  1036800 = # of 1-3 neighbors after angle trim
    19 = max # of special neighbors
  special bonds CPU = 0.014 seconds
  replicate CPU = 0.039 seconds
#include lmp.in

variable srate      equal ${strainrate}/1e15
variable srate      equal 200000000/1e15
variable thermo     equal "ceil(abs(1e12 / v_strainrate))"
variable tdamp      equal 100*${dt}
variable tdamp      equal 100*1
variable pdamp      equal 1000*${dt}
variable pdamp      equal 1000*1
variable pe         equal pe

# for units real, pressure is in [atmospheres] = 0.101325 [MPa]
variable sxx        equal "-pxx*0.101325"
variable syy        equal "-pyy*0.101325"
variable szz        equal "-pzz*0.101325"
variable sxz        equal "-pxz*0.101325"
variable syz        equal "-pyz*0.101325"
variable sxy        equal "-pxy*0.101325"
variable steps      equal ceil(abs(${strain_total}/${srate}))
variable steps      equal ceil(abs(0.3/${srate}))
variable steps      equal ceil(abs(0.3/2e-07))
variable dump_steps equal ceil(${steps}/${deform_steps})
variable dump_steps equal ceil(1500000/${deform_steps})
variable dump_steps equal ceil(1500000/50)
variable strain     equal "step*v_srate"
variable    xcm     equal xcm(all,x)
variable    ycm     equal xcm(all,y)
variable    zcm     equal xcm(all,z)
variable    xhi     equal xhi
variable    yhi     equal yhi
variable    zhi     equal zhi
variable    xlo     equal xlo
variable    ylo     equal ylo
variable    zlo     equal zlo
variable    xy      equal xy
variable    xz      equal xz
variable    yz      equal yz


print "strainrate ${strainrate}"
strainrate 200000000
print "srate ${srate}"
srate 2e-07
print "steps ${steps}"
steps 1500000
print "dump_steps ${dump_steps}"
dump_steps 30000


thermo          1000
neighbor        1.0    bin
neigh_modify    every 1 delay 5 check yes
thermo_style    custom step temp ke pe etotal lx ly lz pxx pyy pzz pxy pxz pyz vol
WARNING: New thermo_style command, previous thermo_modify settings will be lost (../output.cpp:904)
thermo_modify   lost warn norm yes
timestep 	    ${dt}
timestep 	    1

#======================== Energy minimization
min_style       cg
minimize        1.0e-25 1.0e-25 100 100000

CITE-CITE-CITE-CITE-CITE-CITE-CITE-CITE-CITE-CITE-CITE-CITE-CITE

Your simulation uses code contributions which should be cited:

- Type Label Framework: https://doi.org/10.1021/acs.jpcb.3c08419

@Article{Gissinger24,
 author = {Jacob R. Gissinger, Ilia Nikiforov, Yaser Afshar, Brendon Waters, Moon-ki Choi, Daniel S. Karls, Alexander Stukowski, Wonpil Im, Hendrik Heinz, Axel Kohlmeyer, and Ellad B. Tadmor},
 title = {Type Label Framework for Bonded Force Fields in LAMMPS},
 journal = {J. Phys. Chem. B},
 year =    2024,
 volume =  128,
 number =  13,
 pages =   {3282â€“-3297}
}

- neighbor multi command: doi:10.1016/j.cpc.2008.03.005, doi:10.1007/s40571-020-00361-2

@Article{Intveld08,
 author =  {in 't Veld, P. J. and S. J.~Plimpton and G. S. Grest},
 title =   {Accurate and Efficient Methods for Modeling Colloidal
            Mixtures in an Explicit Solvent using Molecular Dynamics},
 journal = {Comput.\ Phys.\ Commut.},
 year =    2008,
 volume =  179,
 pages =   {320--329}
}

@article{Shire2020,
 author = {Shire, Tom and Hanley, Kevin J. and Stratford, Kevin},
 title = {{DEM} Simulations of Polydisperse Media: Efficient Contact
          Detection Applied to Investigate the Quasi-Static Limit},
 journal = {Computational Particle Mechanics},
 year = {2020}
@article{Monti2022,
 author = {Monti, Joseph M. and Clemmer, Joel T. and Srivastava, 
           Ishan and Silbert, Leonardo E. and Grest, Gary S. 
           and Lechman, Jeremy B.},
 title = {Large-scale frictionless jamming with power-law particle 
          size distributions},
 journal = {Phys. Rev. E},
 volume = {106}
 issue = {3}
 year = {2022}
}

CITE-CITE-CITE-CITE-CITE-CITE-CITE-CITE-CITE-CITE-CITE-CITE-CITE

Switching to 'neigh_modify every 1 delay 0 check yes' setting during minimization
PPPM initialization ...
  using 12-bit tables for long-range coulomb (../kspace.cpp:342)
  G vector (1/distance) = 0.29202899
  grid = 32 32 60
  stencil order = 6
  estimated absolute RMS force accuracy = 0.43780429
  estimated relative force accuracy = 0.0013184346
  using double precision KISS FFT
  3d grid and FFT values/proc = 2310 256
Generated 3 of 3 mixed pair_coeff terms from arithmetic mixing rule
Neighbor list info ...
  update: every = 1 steps, delay = 0 steps, check = yes
  max neighbors/atom: 2000, page size: 100000
  master list distance cutoff = 10
  ghost atom cutoff = 10
  binsize = 5, bins = 35 19 35
  1 neighbor lists, perpetual/occasional/extra = 1 0 0
  (1) pair lj/cut/coul/long, perpetual
      attributes: half, newton on
      pair build: half/bin/newton/tri
      stencil: half/bin/3d/tri
      bin: standard
Per MPI rank memory allocation (min/avg/max) = 15.82 | 15.83 | 15.83 Mbytes
   Step          Temp          KinEng         PotEng         TotEng           Lx             Ly             Lz            Pxx            Pyy            Pzz            Pxy            Pxz            Pyz           Volume    
         0   0              0              4.2827135      4.2827135      154.2355       88.112         172.5444       137337.16      121512.55      216523.26     -4296.0206     -4808.4677      2649.1896      2344878.1    
        68   0              0             -0.29776265    -0.29776265     154.2355       88.112         172.5444      -3049.4015     -2714.9352      949.69994     -929.58427     -773.95775      313.02907      2344878.1    
Loop time of 2.36164 on 256 procs for 68 steps with 288000 atoms

98.3% CPU use with 256 MPI tasks x no OpenMP threads

Minimization stats:
  Stopping criterion = linesearch alpha is zero
  Energy initial, next-to-last, final = 
      4.28271349719475 -0.297762652207213 -0.297762652207216
  Force two-norm initial, final = 49683.189 26.045691
  Force max component initial, final = 140.90583 0.090422541
  Final line search alpha, max atom move = 3.0551451e-06 2.7625399e-07
  Iterations, force evaluations = 68 173

MPI task timing breakdown:
Section |  min time  |  avg time  |  max time  |%varavg| %total
---------------------------------------------------------------
Pair    | 1.3        | 1.3375     | 1.5924     |   2.1 | 56.63
Bond    | 0.032145   | 0.033409   | 0.039104   |   0.5 |  1.41
Kspace  | 0.38713    | 0.63134    | 0.68684    |   3.5 | 26.73
Neigh   | 0          | 0          | 0          |   0.0 |  0.00
Comm    | 0.20654    | 0.24541    | 0.29122    |   3.9 | 10.39
Output  | 0          | 0          | 0          |   0.0 |  0.00
Modify  | 0          | 0          | 0          |   0.0 |  0.00
Other   |            | 0.114      |            |       |  4.83

Nlocal:           1125 ave        1129 max        1121 min
Histogram: 32 32 32 32 0 0 32 32 32 32
Nghost:         7648.5 ave        7663 max        7631 min
Histogram: 32 0 64 32 0 0 32 0 0 96
Neighs:         287138 ave      288997 max      285709 min
Histogram: 18 35 28 37 26 41 38 24 3 6

Total # of neighbors = 73507200
Ave neighs/atom = 255.23333
Ave special neighs/atom = 9.4
Neighbor list builds = 0
Dangerous builds = 0
#fix             BoxRelax all box/relax tri 0.0  vmax 0.01 nreset 10 fixedpoint ${xcm} ${ycm} ${zcm}
#minimize        1.0e-25 1.0e-25 100 100# 000 1000000
#unfix           BoxRelax
dump            1 all custom 10000 0.dump element id mol type x y z
undump          1

#========================= Global setting for NPT simulation
fix             langevin all langevin ${temperature} ${temperature} ${tdamp} 32258453 zero yes
fix             langevin all langevin 300 ${temperature} ${tdamp} 32258453 zero yes
fix             langevin all langevin 300 300 ${tdamp} 32258453 zero yes
fix             langevin all langevin 300 300 100 32258453 zero yes

#======================== NPT equilibration
velocity        all create ${temperature} 1938072 mom yes rot no
velocity        all create 300 1938072 mom yes rot no
#fix             1 all npt temp ${temperature} ${temperature} ${tdamp} iso ${pressure} ${pressure} ${pdamp}
fix             1 all nph tri ${patm} ${patm} ${pdamp} fixedpoint ${xcm} ${ycm} ${zcm} flip no
fix             1 all nph tri 1 ${patm} ${pdamp} fixedpoint ${xcm} ${ycm} ${zcm} flip no
fix             1 all nph tri 1 1 ${pdamp} fixedpoint ${xcm} ${ycm} ${zcm} flip no
fix             1 all nph tri 1 1 1000 fixedpoint ${xcm} ${ycm} ${zcm} flip no
fix             1 all nph tri 1 1 1000 fixedpoint 71.0268906520106 ${ycm} ${zcm} flip no
fix             1 all nph tri 1 1 1000 fixedpoint 71.0268906520106 42.1898972658382 ${zcm} flip no
fix             1 all nph tri 1 1 1000 fixedpoint 71.0268906520106 42.1898972658382 86.2722295295029 flip no

dump            1 all custom 20000 equilibrium.*.dump element id mol type x y z
dump_modify     1 element ${ele_string}
dump_modify     1 element C C H
run             ${trelax}
run             50000
PPPM initialization ...
  using 12-bit tables for long-range coulomb (../kspace.cpp:342)
  G vector (1/distance) = 0.29202899
  grid = 32 32 60
  stencil order = 6
  estimated absolute RMS force accuracy = 0.43780429
  estimated relative force accuracy = 0.0013184346
  using double precision KISS FFT
  3d grid and FFT values/proc = 2310 256
Generated 3 of 3 mixed pair_coeff terms from arithmetic mixing rule
Per MPI rank memory allocation (min/avg/max) = 14.7 | 14.7 | 14.71 Mbytes
   Step          Temp          KinEng         PotEng         TotEng           Lx             Ly             Lz            Pxx            Pyy            Pzz            Pxy            Pxz            Pyz           Volume    
        68   300            0.89423991    -0.29776265     0.59647726     154.2355       88.112         172.5444       1972.3748      2305.0568      5969.8527     -919.12229     -775.24155      325.92914      2344878.1    
      1000   298.67934      0.89030329     0.64047636     1.5307796      155.94989      89.104355      177.34472      764.84386      990.79489      2783.5507     -34.44348      -293.20744     -84.539146      2464349.3    
      2000   300.69884      0.89632302     0.65970644     1.5560295      156.80032      89.431264      180.06516      245.1393      -15.653836      912.23696     -56.050881     -97.631567      12.17051       2525026.8    
      3000   299.44771      0.89259363     0.670972       1.5635656      157.13204      89.476881      181.40904      135.11953      45.190247      359.26097     -27.261152      40.910827     -238.00641      2550553.9    
      4000   299.94258      0.89406876     0.6730975      1.5671663      157.22669      89.522271      181.92752     -169.24983     -137.34585     -37.698494      61.5484       -20.872801     -0.91498642     2560682.8    
      5000   300.42739      0.89551387     0.67124999     1.5667639      157.30297      89.521479      181.98021      97.989382      265.9589       82.719097      1.3381212     -40.165418     -33.429549      2562644.3    
      6000   299.85527      0.89380851     0.6765648      1.5703733      157.33502      89.534219      182.00973     -87.523974      275.01084     -55.880057      94.238617      110.60903      40.137102      2563947.1    
      7000   300.0673       0.89444053     0.67557257     1.5700131      157.24896      89.532577      181.9888       467.95823      203.73597      55.225091     -112.74664      24.146351      8.7699006      2562202.9    
      8000   299.81567      0.89369045     0.67616882     1.5698593      157.41626      89.524102      182.02884     -293.49326      247.5372      -418.57751      4.7203047      70.711522     -14.215057      2565250.5    
      9000   299.49828      0.89274439     0.67668897     1.5694334      157.42682      89.5214        182.04902     -315.61426     -6.1556385     -6.9401604      6.9806366      1.4513998      14.743359      2565629.5    
     10000   299.24868      0.89200038     0.67646204     1.5684624      157.2861       89.526635      182.1083       156.17103      7.1332342      54.627729     -60.663015      95.723397      32.208717      2564320.8    
     11000   300.30485      0.89514861     0.67406628     1.5692149      157.16046      89.507576      182.02821      331.57658      354.56496     -137.08707      186.65261      33.430049      152.92347      2560600.3    
     12000   300.09876      0.89453429     0.67808844     1.5726227      157.36973      89.568489      182.02114     -66.888717      413.85787      155.77773      201.97732      87.169871     -70.796364      2565655.2    
     13000   300.58443      0.89598198     0.67563246     1.5716144      157.16711      89.558777      182.04694      286.67809      78.310337      54.656823     -195.73066     -13.79403       20.131752      2562437.1    
     14000   300.25666      0.89500498     0.67554706     1.570552       157.31461      89.532676      181.93462     -57.370796      38.413268     -80.63378       63.173774     -48.870226     -68.128356      2562512.4    
     15000   300.06519      0.89443422     0.67762363     1.5720578      157.39436      89.478638      182.00597      157.92864     -136.99464     -85.002519      52.109863      118.75514     -107.48162      2563269      
     16000   299.75147      0.89349909     0.67629086     1.56979        157.34847      89.553762      182.12585      299.22756      2.4383156      58.669428     -82.504334     -168.44828     -159.04967      2566362.2    
     17000   300.92397      0.89699408     0.67284791     1.569842       157.23208      89.516748      182.00528     -191.64703     -38.57068       25.739658      129.52002     -23.375645     -34.621987      2561706.9    
     18000   299.8314       0.89373736     0.67448684     1.5682242      157.33979      89.525863      182.00975      6.2814263     -245.7223       153.39479     -163.7478       7.6565242      12.180906      2563785.7    
     19000   300.37914      0.89537006     0.6777138      1.5730839      157.31516      89.521187      182.08335      269.60326     -156.35842     -315.44832      104.37898      53.767711      40.757712      2564287.1    
     20000   300.49964      0.89572923     0.67675592     1.5724851      157.28949      89.524006      181.99769      275.02457     -141.73983      25.630404     -51.2835       -80.930272      22.765959      2562743.2    
     21000   299.13428      0.89165938     0.67562958     1.567289       157.29426      89.540817      182.02408      128.88421     -415.63732      30.82426       13.709152      46.661613     -98.147411      2563673.9    
     22000   300.52111      0.89579322     0.67724182     1.573035       157.28135      89.565705      182.07705      151.01013     -358.61713     -51.35839       454.3077       61.491409     -17.019924      2564922.1    
     23000   299.55556      0.89291514     0.67730869     1.5702238      157.3659       89.544064      181.95466      155.38579      209.32524     -21.312438      50.664725      33.467386      25.103901      2563956.4    
     24000   300.45826      0.8956059      0.67535488     1.5709608      157.31834      89.52642       181.81973     -241.27215     -292.3062       151.17873     -268.4841      -0.20507234     176.62872      2560775.9    
     25000   300.1758       0.89476392     0.67545113     1.570215       157.29961      89.546583      182.00119     -44.13259       119.20536      386.13376     -268.95908     -24.329406      67.842034      2563603.8    
     26000   299.58414      0.89300032     0.67742491     1.5704252      157.2947       89.518502      182.15884     -129.73128     -104.89304      87.642884     -304.32609      10.574445     -62.074742      2564939.7    
     27000   300.53908      0.89584679     0.67466112     1.5705079      157.35312      89.454271      181.9629      -36.910558      247.70372      91.04474       50.894962     -95.471549      48.014531      2561293.1    
     28000   299.80582      0.89366111     0.67580562     1.5694667      157.41467      89.526126      181.93267     -290.57675      177.79644      104.64802      46.081466      33.313898     -111.4229       2563927.2    
     29000   299.64397      0.89317867     0.67632518     1.5695039      157.36341      89.489992      182.01709     -249.72284     -165.71071      73.427641      45.587072      22.91845      -130.38027      2563246.6    
     30000   299.314        0.89219507     0.67577705     1.5679721      157.36915      89.528192      181.98832      20.581406     -10.750603      3.9547791     -76.337287     -10.551249     -12.165793      2564029      
     31000   300.05893      0.89441556     0.67472151     1.5691371      157.29366      89.498468      182.06156      131.85039     -84.220899     -388.17491      168.86173     -145.68135     -57.004331      2562979.2    
     32000   299.57934      0.89298601     0.67419057     1.5671766      157.35389      89.507485      182.12314     -62.091827     -160.5657      -67.784192      62.288725     -101.36245      78.540557      2565086.2    
     33000   299.71691      0.89339608     0.67613806     1.5695341      157.34967      89.557196      181.93986      43.285556      141.36483     -82.384198     -128.87996     -11.05772       87.755676      2563859.2    
     34000   299.47565      0.89267692     0.67715548     1.5698324      157.31247      89.535693      181.97832      91.965837     -60.112356     -52.834806     -34.959255     -58.904282      71.707462      2563179.4    
     35000   300.47973      0.89566989     0.67503939     1.5707093      157.29698      89.547924      182.02645      367.98173     -370.05883     -4.1994487      187.13607     -99.493029      7.7944573      2563955      
     36000   300.13899      0.89465421     0.67413786     1.5687921      157.31669      89.544341      181.99076     -208.12733      77.468942      154.96171     -55.378069      30.743371     -104.33229      2563671      
     37000   299.53804      0.8928629      0.6742298      1.5670927      157.31172      89.512373      182.0848       271.32706      67.458435     -41.335376     -123.0026      -55.637155      42.785139      2563999      
     38000   299.99         0.89421011     0.67234906     1.5665592      157.34327      89.518557      182.10871     -151.67703     -34.682778      108.57338      91.347266      103.98604     -130.86007      2565027.1    
     39000   300.03247      0.8943367      0.67431476     1.5686515      157.27649      89.523633      182.00609     -49.741297     -194.04303     -50.795298      13.927351     -163.19545     -50.911705      2562639.1    
     40000   300.39722      0.89542394     0.67367578     1.5690997      157.36315      89.511916      182.06508     -237.5991       146.87383     -81.60079       7.9574865      114.83532      160.01896      2564546.3    
     41000   300.609        0.89605521     0.6784484      1.5745036      157.36357      89.496276      182.23995     -79.972366      263.27836     -180.47625      34.266879      257.27045     -21.992672      2566567.9    
     42000   300.39409      0.89541461     0.6745423      1.5699569      157.35342      89.534904      182.06572     -95.493393     -321.98753     -72.443414     -36.123862      66.117767     -1.5662827      2565055.3    
     43000   299.33891      0.89226935     0.67456149     1.5668308      157.38747      89.523038      182.12732     -57.439672      13.700482      79.933491      281.47671      55.354009      89.082751      2566138.3    
     44000   300.20238      0.89484318     0.67693657     1.5717798      157.38097      89.484136      181.97977     -211.54692      279.9494      -114.68556      53.169693      10.410441      16.651113      2562839.3    
     45000   299.94735      0.89408297     0.67310023     1.5671832      157.32638      89.539696      182.03824      58.863794      186.1249      -179.61534     -221.70114     -78.503029      206.09787      2564364.6    
     46000   300.70743      0.89634863     0.67456385     1.5709125      157.20296      89.550096      182.04859      46.722396     -313.34163     -32.839353      4.9985653     -28.428498      12.906117      2562796.2    
     47000   299.43142      0.8925451      0.67594475     1.5684898      157.21162      89.549638      182.05077      257.24375     -77.854998      103.78497      156.5282       163.09794     -7.9399268      2562955.2    
     48000   299.75807      0.89351876     0.67364592     1.5671647      157.2802       89.54029       181.92599      174.23255     -8.0482324     -80.766595      271.1558      -51.118131      167.89018      2562048.2    
     49000   299.41667      0.89250113     0.67587124     1.5683724      157.35156      89.530384      182.01796      173.60467     -572.03053     -78.664751      104.20865      65.479399      185.97503      2564222.7    
     50000   300.68347      0.89627719     0.67714395     1.5734211      157.29539      89.515146      181.98515      189.26048     -101.21512      48.859972      55.200315     -44.533002     -9.5061264      2562409.1    
     50068   300.3691       0.89534011     0.67401816     1.5693583      157.29282      89.523784      181.9752       58.695466     -147.47108     -15.926783      75.821494     -21.784894     -112.26316      2562474.3    
Loop time of 572.743 on 256 procs for 50000 steps with 288000 atoms

Performance: 7.543 ns/day, 3.182 hours/ns, 87.299 timesteps/s, 25.142 Matom-step/s
99.4% CPU use with 256 MPI tasks x no OpenMP threads

MPI task timing breakdown:
Section |  min time  |  avg time  |  max time  |%varavg| %total
---------------------------------------------------------------
Pair    | 233.7      | 237.5      | 245.98     |  10.8 | 41.47
Bond    | 10.184     | 10.567     | 11.289     |   6.8 |  1.84
Kspace  | 88.577     | 97.614     | 105.69     |  35.4 | 17.04
Neigh   | 119.37     | 122.92     | 126.49     |  16.9 | 21.46
Comm    | 68.754     | 79.779     | 94.007     |  70.5 | 13.93
Output  | 0.11625    | 0.13276    | 0.14644    |   2.3 |  0.02
Modify  | 15.601     | 19.488     | 23.01      |  43.8 |  3.40
Other   |            | 4.743      |            |       |  0.83

Nlocal:           1125 ave        1151 max        1102 min
Histogram: 2 9 24 52 63 52 33 14 6 1
Nghost:        7179.62 ave        7279 max        7109 min
Histogram: 4 16 39 69 56 34 20 14 3 1
Neighs:         266215 ave      274797 max      257551 min
Histogram: 1 5 14 44 59 77 34 14 5 3

Total # of neighbors = 68150944
Ave neighs/atom = 236.63522
Ave special neighs/atom = 9.4
Neighbor list builds = 6795
Dangerous builds = 0
unfix           1
undump          1

variable	yzv 	equal	yz
variable	yzzo	equal	${yzv}
variable	yzzo	equal	-6.37264974271847

#========================DEFORMATION
reset_timestep  0
dump            1 all custom ${dump_steps} shear.*.dump element id mol type x y z
dump            1 all custom 30000 shear.*.dump element id mol type x y z
dump_modify     1 element ${ele_string}
dump_modify     1 element C C H
compute         cc1 all chunk/atom molecule
compute         myChunk all com/chunk cc1

fix             1 all nph x ${patm} ${patm} ${pdamp}  y ${patm} ${patm} ${pdamp} z ${patm} ${patm} ${pdamp} xy ${patm} ${patm} ${pdamp} fixedpoint ${xcm} ${ycm} ${zcm}
fix             1 all nph x 1 ${patm} ${pdamp}  y ${patm} ${patm} ${pdamp} z ${patm} ${patm} ${pdamp} xy ${patm} ${patm} ${pdamp} fixedpoint ${xcm} ${ycm} ${zcm}
fix             1 all nph x 1 1 ${pdamp}  y ${patm} ${patm} ${pdamp} z ${patm} ${patm} ${pdamp} xy ${patm} ${patm} ${pdamp} fixedpoint ${xcm} ${ycm} ${zcm}
fix             1 all nph x 1 1 1000  y ${patm} ${patm} ${pdamp} z ${patm} ${patm} ${pdamp} xy ${patm} ${patm} ${pdamp} fixedpoint ${xcm} ${ycm} ${zcm}
fix             1 all nph x 1 1 1000  y 1 ${patm} ${pdamp} z ${patm} ${patm} ${pdamp} xy ${patm} ${patm} ${pdamp} fixedpoint ${xcm} ${ycm} ${zcm}
fix             1 all nph x 1 1 1000  y 1 1 ${pdamp} z ${patm} ${patm} ${pdamp} xy ${patm} ${patm} ${pdamp} fixedpoint ${xcm} ${ycm} ${zcm}
fix             1 all nph x 1 1 1000  y 1 1 1000 z ${patm} ${patm} ${pdamp} xy ${patm} ${patm} ${pdamp} fixedpoint ${xcm} ${ycm} ${zcm}
fix             1 all nph x 1 1 1000  y 1 1 1000 z 1 ${patm} ${pdamp} xy ${patm} ${patm} ${pdamp} fixedpoint ${xcm} ${ycm} ${zcm}
fix             1 all nph x 1 1 1000  y 1 1 1000 z 1 1 ${pdamp} xy ${patm} ${patm} ${pdamp} fixedpoint ${xcm} ${ycm} ${zcm}
fix             1 all nph x 1 1 1000  y 1 1 1000 z 1 1 1000 xy ${patm} ${patm} ${pdamp} fixedpoint ${xcm} ${ycm} ${zcm}
fix             1 all nph x 1 1 1000  y 1 1 1000 z 1 1 1000 xy 1 ${patm} ${pdamp} fixedpoint ${xcm} ${ycm} ${zcm}
fix             1 all nph x 1 1 1000  y 1 1 1000 z 1 1 1000 xy 1 1 ${pdamp} fixedpoint ${xcm} ${ycm} ${zcm}
fix             1 all nph x 1 1 1000  y 1 1 1000 z 1 1 1000 xy 1 1 1000 fixedpoint ${xcm} ${ycm} ${zcm}
fix             1 all nph x 1 1 1000  y 1 1 1000 z 1 1 1000 xy 1 1 1000 fixedpoint 69.6604183166288 ${ycm} ${zcm}
fix             1 all nph x 1 1 1000  y 1 1 1000 z 1 1 1000 xy 1 1 1000 fixedpoint 69.6604183166288 40.4799034509483 ${zcm}
fix             1 all nph x 1 1 1000  y 1 1 1000 z 1 1 1000 xy 1 1 1000 fixedpoint 69.6604183166288 40.4799034509483 86.2722295295034
#fix             1 all nph tri ${patm} ${patm} ${pdamp}
fix             2 all ave/time 2 100 ${thermo} v_strain v_sxx v_syy v_szz v_sxz v_syz v_sxy v_pe file output.dat
fix             2 all ave/time 2 100 5000 v_strain v_sxx v_syy v_szz v_sxz v_syz v_sxy v_pe file output.dat
fix             6 all ave/time 2 100 ${thermo} c_myChunk[*] file center.dat mode vector
fix             6 all ave/time 2 100 5000 c_myChunk[*] file center.dat mode vector
fix             7 all print ${thermo} "${xhi} ${xlo} ${yhi} ${ylo} ${zhi} ${zlo} ${xy} ${xz} ${yz}" screen no file box_parameters.dat
fix             7 all print 5000 "${xhi} ${xlo} ${yhi} ${ylo} ${zhi} ${zlo} ${xy} ${xz} ${yz}" screen no file box_parameters.dat

variable	srate1	equal	1*${srate}
variable	srate1	equal	1*2e-07
variable	srate2	equal	1.25*${srate}
variable	srate2	equal	1.25*2e-07

#======================== load
fix             3 all deform 1 xz erate -${srate1} yz erate ${srate2} units box remap x flip no
fix             3 all deform 1 xz erate -2e-07 yz erate ${srate2} units box remap x flip no
fix             3 all deform 1 xz erate -2e-07 yz erate 2.5e-07 units box remap x flip no
run             ${steps}
run             1500000
PPPM initialization ...
  using 12-bit tables for long-range coulomb (../kspace.cpp:342)
  G vector (1/distance) = 0.29202899
  grid = 32 32 60
  stencil order = 6
  estimated absolute RMS force accuracy = 0.52494402
  estimated relative force accuracy = 0.0015808533
  using double precision KISS FFT
  3d grid and FFT values/proc = 2310 256
Generated 3 of 3 mixed pair_coeff terms from arithmetic mixing rule
Per MPI rank memory allocation (min/avg/max) = 14.97 | 14.97 | 14.98 Mbytes
   Step          Temp          KinEng         PotEng         TotEng           Lx             Ly             Lz            Pxx            Pyy            Pzz            Pxy            Pxz            Pyz           Volume    
         0   300.3691       0.89534011     0.67401816     1.5693583      157.29282      89.523784      181.9752       58.695466     -147.47108     -15.926783      75.821494     -21.784894     -112.26316      2562474.3    
      1000   299.98294      0.89418905     0.67461601     1.5688051      157.35018      89.587684      182.06293     -46.333854     -349.1036       123.1137       38.602916     -4.8364241     -5.3688113      2566475.3    
      2000   300.2107       0.89486797     0.67451747     1.5693854      157.3108       89.561745      181.95634     -276.00158     -215.57528     -116.60061      149.06354      15.836219     -144.71473      2563588.3    
      3000   299.63804      0.89316098     0.67828055     1.5714415      157.27584      89.533262      182.03186     -373.84259     -244.17216      8.6671572      54.30803       76.898706     -95.718988      2563266.8    
      4000   299.79665      0.89363378     0.67790703     1.5715408      157.25574      89.559945      182.20667     -140.52157     -461.08192     -330.84901     -46.790852     -101.02319     -283.22424      2566165      
      5000   300.03038      0.89433047     0.67517527     1.5695057      157.41219      89.56491       182.12349      506.1153       94.661538     -56.824284      88.166349     -110.93809     -68.280377      2567687.9    
      6000   299.64833      0.89319166     0.67693996     1.5701316      157.35763      89.552966      182.1214      -133.07965     -190.96856      202.62239      11.420305      57.855545      66.865561      2566426.1    
      7000   300.43627      0.89554035     0.6750374      1.5705777      157.29955      89.487179      182.06937     -105.21698     -195.3917      -136.45146      170.70054     -134.24627     -33.015032      2562861.8    
      8000   299.73178      0.8934404      0.67504099     1.5684814      157.35424      89.518808      182.05248     -220.35447     -17.933323      44.392391     -59.233725     -78.758259      7.4567197      2564421      
      9000   300.21364      0.89487673     0.67557943     1.5704562      157.34042      89.506359      182.03203     -61.908656      380.21973      168.80702      4.9186529     -21.21366       103.35503      2563551.3    
     10000   300.02217      0.89430598     0.678395       1.572701       157.38558      89.536078      181.98239     -61.134556     -51.043731      45.720755      146.97336      1.0008686     -20.131828      2564438.9    
     11000   299.53941      0.89286699     0.67538677     1.5682538      157.2549       89.524292      181.96208     -49.505706      154.76762     -155.73802     -111.85701      131.7494       169.31722      2561686.5    
     12000   300.55621      0.89589787     0.67558095     1.5714788      157.3326       89.501136      181.98577     -20.107878     -103.90962      62.28184      -116.24584      14.19818      -25.116727      2562622.9    
     13000   299.68232      0.89329297     0.67600544     1.5692984      157.28761      89.53367       182.03234     -159.23519     -347.52727      84.288042     -13.200285      172.77711     -77.248079      2563477.1    
     14000   300.78474      0.89657906     0.6765716      1.5731507      157.32348      89.498678      182.06361      201.88702      180.6716       311.75549     -18.214955     -114.83738     -41.912215      2563500      
     15000   300.75995      0.89650517     0.67374139     1.5702466      157.28952      89.515782      181.97262      146.50051      385.9678       9.2095261     -87.102227      3.7153189      41.639865      2562155.4    
     16000   300.17785      0.89477005     0.67617181     1.5709419      157.26378      89.518134      182.09103     -58.73462      -28.399305     -164.62605      171.91938     -27.025599     -105.27831      2563470.3    
     17000   300.15699      0.89470786     0.6761482      1.5708561      157.32587      89.534373      182.01388     -126.67167      77.30001      -99.218195      181.64644      201.94275     -6.3801003      2563860.7    
     18000   299.90524      0.89395745     0.67643265     1.5703901      157.38745      89.53273       182.02604     -364.09683      90.409713      46.738351     -269.72791     -113.4551      -86.560627      2564988.6    
     19000   300.08896      0.89450509     0.67695518     1.5714603      157.30543      89.530752      182.15625     -187.17629     -375.5161      -73.422039      73.778125      12.224918      46.383103      2565429.1    
     20000   300.09249      0.89451561     0.67248646     1.5670021      157.35201      89.539993      182.02661     -69.771003      62.542961     -8.2545158     -221.06715      138.91189     -176.5623       2564627.1    
     21000   301.01614      0.89726881     0.67590255     1.5731714      157.2925       89.475348      181.96609     -25.378602      201.69202     -58.172651     -35.15795       58.679629      24.542283      2560954.5    
     22000   300.10771      0.89456098     0.67351945     1.5680804      157.2921       89.477645      182.063        102.40152      170.73857     -79.416593      9.016327       49.421294     -6.6443209      2562377.8    
     23000   299.42595      0.89252877     0.67690955     1.5694383      157.34305      89.496469      182.07137     -117.39631     -224.74202     -168.03454     -12.689178      74.890312     -89.807214      2563864.8    
     24000   299.87477      0.89386661     0.67402546     1.5678921      157.41373      89.520584      182.08252      120.96695      191.267       -190.49916      88.914497     -16.717219      75.83625       2565864.8    
     25000   300.15817      0.89471139     0.67567129     1.5703827      157.32351      89.487073      182.15856      221.77142      111.51402      159.91736     -422.59971     -77.149813     -47.080265      2564504.8    
     26000   299.91141      0.89397584     0.67488878     1.5688646      157.35917      89.5395        182.14646     -450.74859     -26.560622      133.47862     -74.61742       36.541031     -35.717687      2566418.4    
     27000   300.14292      0.89466594     0.67816289     1.5728288      157.39215      89.544905      182.00531     -254.31636     -28.687096     -174.60833     -19.401074     -62.617374     -55.505533      2565122      
     28000   299.55637      0.89291753     0.67704699     1.5699645      157.28089      89.579725      182.13106     -250.63559     -436.69114      43.792077     -226.846        58.771922      13.645637      2566077.1    
     29000   300.02512      0.8943148      0.67446537     1.5687802      157.34714      89.531467      182.09565     -359.28099      75.786808      52.603805     -23.4553       -21.741311     -159.91175      2565276.1    
     30000   299.57377      0.89296941     0.67515004     1.5681195      157.47084      89.533032      181.95001     -291.80261     -67.738862      54.81277      -2.4607283     -102.97787     -71.60614       2565284.3    
     31000   299.99722      0.89423163     0.67611431     1.5703459      157.38836      89.493315      182.05208     -164.8998      -287.51066     -93.190446      134.0385       155.87107     -40.056215      2564241.1    
     32000   299.40694      0.89247212     0.6755122      1.5679843      157.21429      89.472765      182.11984      612.14446      25.575722      38.629495      420.36948      2.7482077     -67.11549       2561769.9    
     33000   300.40734      0.8954541      0.67551446     1.5709686      157.34254      89.55374       182.0577       66.177448      173.75559      26.0488        35.892731     -92.744185     -99.055448      2565304.5    
     34000   299.83625      0.8937518      0.67654492     1.5702967      157.37802      89.51785       182.07034     -99.603297     -341.59883     -164.8729       119.85901      55.429668      57.697053      2565032.7    
     35000   299.79395      0.8936257      0.6760849      1.5697106      157.32104      89.515016      182.12413     -40.399326     -132.56759     -212.6291       55.805273      96.86086      -97.27597       2564780.5    
     36000   299.57196      0.892964       0.67413923     1.5671032      157.34323      89.536982      182.3015       85.446017      516.12534     -214.92656      5.6216494     -73.340745      156.95652      2568270.6    
     37000   300.5951       0.89601377     0.67409619     1.57011        157.39213      89.524317      182.02398     -387.72265     -157.0325      -352.71674      45.154372     -24.715403     -41.629551      2564794.9    
     38000   299.93891      0.89405782     0.67563154     1.5696894      157.34892      89.512534      182.11027     -89.646179      251.27536     -85.516081     -118.79768      110.59372     -113.29384      2564968.6    
     39000   300.42908      0.8955189      0.6762861      1.571805       157.33299      89.482357      182.07313      417.57846      48.941896     -1.3939776      151.24938      57.408777     -185.79813      2563321.6    
     40000   299.31598      0.89220098     0.67672512     1.5689261      157.34603      89.467995      182.0749      -111.17707      179.68923      260.83765      49.358337     -76.851239      45.413779      2563147.4    
     41000   299.93325      0.89404095     0.67810386     1.5721448      157.39479      89.507707      182.09161     -39.124479     -246.9153       34.419003      32.544204      16.209331     -44.892449      2565315.1    
     42000   299.64776      0.89318995     0.6726724      1.5658623      157.31032      89.50235       181.98238      130.60865      43.366415      29.202171      305.09321      7.6956763      37.954357      2562247      
     43000   299.99671      0.8942301      0.67552525     1.5697554      157.40847      89.488157      182.0763      -41.640985     -246.96848     -27.885787      162.45897     -3.3261632      77.816577      2564762.1    
     44000   300.50369      0.8957413      0.67545467     1.571196       157.4494       89.487594      182.20598     -22.146684      277.79679     -94.18991       119.91764     -114.95176     -40.467244      2567240      
     45000   299.83718      0.89375459     0.67558277     1.5693374      157.33527      89.489896      182.12966      72.131509      74.630581      142.70577     -209.76695      74.894856     -134.56421      2564370.5    
     46000   299.8995       0.89394035     0.67747935     1.5714197      157.34254      89.490586      182.01023     -157.20549      62.200471      67.781349      131.7918       6.1518412     -150.96484      2562827.1    
     47000   300.19404      0.8948183      0.67427551     1.5690938      157.28745      89.494418      182.06388     -516.55883      358.08769     -34.448701      48.185764      81.62712      -156.09561      2562794.7    
     48000   300.04726      0.89438078     0.67584244     1.5702232      157.31968      89.479914      182.0563       255.86922      253.31064      90.532196     -39.173913      234.92107      90.001867      2562797.7    
     49000   300.21465      0.89487975     0.67369766     1.5685774      157.31794      89.499508      182.10062      277.16201     -353.4357      -218.03303      18.653046      57.721548      29.74339       2563954.6    
     50000   300.33212      0.89522991     0.675819       1.5710489      157.28026      89.511463      182.16348     -135.82543     -222.77118      87.645961     -2.9271291     -10.016252     -48.801508      2564567.9    
     51000   299.49924      0.89274724     0.67579444     1.5685417      157.34359      89.536791      181.88503      8.68065       -67.898102     -83.298404      113.31271      24.441293     -43.23456       2562403.6    
     52000   300.78387      0.89657648     0.676437       1.5730135      157.44819      89.512412      182.17531      312.93197      228.84658      187.90669     -91.156168     -6.3241951     -53.244015      2567500      
     53000   299.51382      0.89279069     0.67651519     1.5693059      157.36877      89.48727       182.05234     -215.45972     -95.170412      33.510103      54.824007      50.120339     -160.47459      2563752.4    
     54000   300.98249      0.89716851     0.67451024     1.5716787      157.35325      89.524612      182.08857     -39.252465      186.74997      166.18123      53.124964      40.774499     -118.65458      2565079.7    
     55000   299.06595      0.89145569     0.67708357     1.5685393      157.37672      89.527556      182.07878      90.795562     -196.15762      205.6008      -4.1139616      76.74318      -165.34359      2565408.7    
     56000   299.7862       0.89360261     0.67403901     1.5676416      157.32375      89.47815       182.06298     -34.153591     -172.39407      24.376509     -26.391614      150.61003     -2.1729464      2562907.5    
     57000   299.78064      0.89358604     0.67610965     1.5696957      157.38479      89.468409      182.06798      113.03945     -31.10804       19.047958      31.194191      84.906141     -40.841691      2563693.1    
     58000   300.65465      0.8961913      0.67630053     1.5724918      157.35814      89.49719       182.0864      -4.9240761     -30.359392     -30.718796     -151.07066     -26.929643      70.747581      2564343.1    
     59000   299.59722      0.89303929     0.67609193     1.5691312      157.28229      89.532273      182.04028      232.55366      13.838745     -59.614687     -28.302294     -89.656572     -143.69744      2563462.2    
     60000   300.10639      0.89455703     0.67512817     1.5696852      157.35747      89.531534      182.06176      291.16922     -45.376613     -167.29469     -164.04336      21.193469     -29.51259       2564969.1    
     61000   300.34799      0.8952772      0.6744983      1.5697755      157.48055      89.483628      182.04974     -131.41227     -344.77124     -2.2345966      109.442       -0.51233549     92.732195      2565432.4    
     62000   299.12408      0.89162898     0.67696471     1.5685937      157.40357      89.482438      182.15731     -7.282952      -249.49161     -23.525383     -119.97315     -1.5852389      33.882228      2565659.3    
     63000   299.9811       0.89418358     0.67392406     1.5681076      157.4954       89.525655      182.12146     -235.57268     -507.8944      -15.179694      247.24311      149.9469      -82.261049      2567890.6    
     64000   299.99933      0.89423791     0.67464213     1.56888        157.42768      89.516169      182.01427      109.08394      317.7731       74.338087     -87.811164      162.05677     -67.041696      2565003.9    
     65000   300.35115      0.89528661     0.67836257     1.5736492      157.37174      89.509369      182.08548      410.65439      250.57049     -51.315134     -88.377167      75.049866     -269.14829      2564900.8    
     66000   299.19413      0.89183778     0.67600527     1.567843       157.30327      89.517902      182.07938      337.40727     -72.279765      31.966231     -106.76466      5.2690973      143.14171      2563943.2    
     67000   299.55721      0.89292003     0.67521642     1.5681365      157.48942      89.485235      182.1083      -155.68467      292.48856      115.27118     -57.899365      26.625109     -119.15563      2566448.1    
     68000   299.55242      0.89290576     0.67705611     1.5699619      157.48096      89.491978      182.17797     -264.98328     -23.929188     -37.168016     -81.321744      93.67858      -243.72461      2567485.6    
     69000   300.33409      0.89523576     0.67367415     1.5689099      157.28948      89.490599      182.06788      392.96091      344.32062      65.176974     -35.41986       79.061609     -114.48552      2562774.7    
     70000   299.86379      0.8938339      0.6776069      1.5714408      157.49014      89.477535      182.15751     -20.468057      199.74192     -49.612071     -65.507037      174.98902      12.613261      2566932.6    
     71000   300.23433      0.89493841     0.67439567     1.5693341      157.46155      89.474536      182.10951      79.280662     -106.24259      127.53066      261.07911     -82.748346     -67.836449      2565704.3    
     72000   300.21248      0.89487328     0.67772505     1.5725983      157.44176      89.501502      182.06477     -240.06047     -277.37162     -115.8221       15.231612      130.86055     -117.02405      2565524.5    
     73000   299.96942      0.89414876     0.67766696     1.5718157      157.45952      89.465123      182.16134     -181.0074       364.49026     -82.218126      24.745473      36.825707     -72.876853      2566131.4    
     74000   301.02638      0.89729933     0.67533943     1.5726388      157.37386      89.504583      182.19595      269.34943      32.406881      78.718657     -57.914242      56.665566     -131.79364      2566354.2    
     75000   299.87033      0.89385339     0.67479602     1.5686494      157.41813      89.520505      182.1868       266.18281     -285.4717       239.01385     -60.693995     -45.375898     -66.710232      2567403.9    
     76000   299.49534      0.89273563     0.67743173     1.5701674      157.41743      89.476465      182.10326      11.549399      27.22041       268.85633      254.6218       152.54642     -24.831507      2564952.7    
     77000   300.05781      0.89441222     0.67573765     1.5701499      157.38849      89.49483       182.0651       121.96318     -18.345046     -9.9155387     -225.36417     -28.449845     -69.409316      2564470.1    
     78000   299.7785       0.89357965     0.67588003     1.5694597      157.4187       89.48017       182.0573       262.81961      263.51697      39.791842     -74.420067     -7.8303776      48.910265      2564432.1    
     79000   300.01156      0.89427437     0.67521239     1.5694868      157.45284      89.509754      182.15319      230.43415      302.97415     -57.545196     -103.15461     -93.772422     -204.04831      2567187.7    
     80000   300.56639      0.89592821     0.67578589     1.5717141      157.39442      89.526518      182.0938      -213.3432      -115.64138      35.510362     -176.19113      132.2847      -123.67507      2565879      
     81000   299.69034      0.89331688     0.67562363     1.5689405      157.30998      89.53283       182.04778     -45.185238     -274.5945      -126.79273      231.93637      170.92028      66.776776      2564035.1    
     82000   300.17657      0.89476622     0.67786538     1.5726316      157.42594      89.496515      182.09321     -297.6543       93.425553      32.689641     -135.5767       140.001       -185.63591      2565524.6    
     83000   300.07289      0.89445718     0.67530344     1.5697606      157.38874      89.471269      182.24785     -272.14802      61.967977     -84.13846       100.74286      193.32894     -103.36211      2566372.3    
     84000   300.44521      0.89556701     0.67411399     1.569681       157.43311      89.481251      182.18709      57.965205     -70.208216      158.43512     -66.644833      164.39642     -126.71016      2566526.2    
     85000   300.25682      0.89500544     0.67543722     1.5704427      157.44324      89.484058      182.02595     -28.953284     -121.07381      146.63375      12.780809     -67.796384      8.7448532      2564501.7    
     86000   300.52419      0.89580241     0.67679293     1.5725953      157.46568      89.505941      182.06256     -225.37183     -113.91305     -297.75721      36.322347      36.991074     -5.7225047      2566010.6    
     87000   300.2616       0.89501969     0.67434378     1.5693635      157.37834      89.490339      182.17754     -171.4638      -58.378598     -100.76979     -329.88079      169.21056     -97.810447      2565759.5    
     88000   299.58413      0.89300029     0.6774985      1.5704988      157.35211      89.518704      182.1461       173.40063     -55.285088     -38.312631     -95.928345      7.1683935     -194.73047      2565702.2    
     89000   300.46526      0.89562676     0.67641454     1.5720413      157.43956      89.506672      182.113       -38.996169     -105.30462     -24.854766     -155.78721      49.853474     -34.697153      2566316.7    
     90000   300.15533      0.89470292     0.67717974     1.5718827      157.43519      89.483145      182.17286     -61.814897      147.13768     -82.911695     -69.654106     -118.05748      70.73878       2566414.1    
     91000   300.05254      0.89439651     0.67782365     1.5722202      157.48138      89.452838      182.25232     -128.65274      232.70822     -126.98201      294.90206      85.723755     -2.4325571      2567417.1    
     92000   300.3424       0.89526054     0.67604484     1.5713054      157.43024      89.490315      182.25347     -41.942074     -333.24515     -3.6202837     -123.92953     -22.029065     -354.39691      2567674.7    
     93000   299.76946      0.89355271     0.67663028     1.570183       157.50817      89.440053      182.26998      186.76768     -70.989897     -153.53397     -63.53716      -41.503014      57.094027      2567735.4    
     94000   300.37376      0.89535402     0.67617514     1.5715292      157.4485       89.470593      182.25748      220.62424      63.990483     -35.991585     -6.1963626      273.98337     -53.956262      2567463.1    
     95000   299.46529      0.89264606     0.67394056     1.5665866      157.48807      89.502436      182.02338      62.505741      101.70523      200.57162      110.67315      70.463094      47.749326      2565722.4    
     96000   299.78072      0.89358628     0.67725339     1.5708397      157.42888      89.538463      182.2081      -184.37146     -436.15416     -131.7772      -168.66661     -1.6151769     -25.893007      2568394.4    
     97000   300.53728      0.89584142     0.67586194     1.5717034      157.39268      89.480428      182.22601      84.937568     -84.033838      60.039285     -103.42382     -10.877285     -215.31553      2566391.8    
     98000   300.2615       0.8950194      0.67661868     1.5716381      157.51565      89.46396       182.20453     -136.24618      105.53479      238.93721     -61.541256      55.748324     -289.96242      2567621.5    
     99000   299.56784      0.89295172     0.67670693     1.5696586      157.45413      89.480128      182.13377      126.7516      -23.04983       424.20529     -160.33809      229.52514     -50.625994      2566085.5    
    100000   300.56041      0.89591037     0.67396851     1.5698789      157.426        89.480309      182.10439      86.559083     -245.59885     -281.81183      115.08204      21.449048     -0.95977926     2565218.5    
    101000   299.97342      0.89416068     0.67789366     1.5720543      157.47386      89.448255      182.13907     -83.364087      35.930776     -43.694744      165.07133      218.22345      25.981916      2565567.7    
    102000   299.77007      0.89355454     0.67412876     1.5676833      157.33903      89.449093      182.12257      75.776688     -209.73908     -11.210301      271.13666      44.248419      84.760125      2563162.7    
    103000   300.46467      0.89562501     0.67759427     1.5732193      157.44456      89.493166      182.23044      7.1538787     -155.69701      265.20436      201.24601      102.45349     -135.6479       2567665.5    
    104000   300.08888      0.89450485     0.67937752     1.5738824      157.43543      89.522252      182.07905     -368.04569     -33.309135      64.42164       218.52102      89.321113      200.05685      2566217.5    
    105000   300.21909      0.89489298     0.67549448     1.5703875      157.41973      89.436206      182.12922     -536.38156      240.30518     -104.30288     -113.12762      33.754173     -89.137628      2564201.5    
    106000   300.46297      0.89561994     0.67785378     1.5734737      157.48099      89.490322      182.11042     -257.98132     -36.569588      206.32735      136.42493     -77.225338      109.10503      2566486.6    
    107000   300.08645      0.8944976      0.67492979     1.5694274      157.4319       89.452026      182.19198      143.65473     -70.295146     -191.53106      18.397841      20.796609     -74.922561      2565737.2    
    108000   298.88553      0.8909179      0.67672126     1.5676392      157.44941      89.482831      182.17547     -204.89693     -183.93321      24.050047     -37.05318       112.34663     -55.949313      2566673.6    
    109000   299.50224      0.89275619     0.67511363     1.5678698      157.63643      89.457586      182.14652     -307.81242     -586.52886     -35.477843     -8.4619174      167.34316     -95.659271      2568589.1    
    110000   300.25535      0.89500105     0.67752569     1.5725267      157.5314       89.525915      182.26141      555.22398     -232.62158      27.259686      77.339878      95.230807     -25.645515      2570458.8    
    111000   300.13637      0.8946464      0.67673864     1.571385       157.50955      89.53032       182.24495     -58.721986      109.81436     -159.49325      120.97637     -24.739038     -170.37755      2569996.4    
    112000   300.00159      0.89424466     0.67667574     1.5709204      157.48679      89.486634      182.14267      149.01638     -84.475187      60.129821     -86.558348      47.599421     -64.808285      2566929.8    
    113000   300.34898      0.89528015     0.67507022     1.5703504      157.43604      89.448004      182.0931      -201.4048       278.43387     -22.435945     -154.70919      80.189846     -295.93902      2564296.9    
    114000   300.34897      0.89528013     0.67732874     1.5726089      157.45982      89.47297       182.23533     -237.99005     -184.86623     -18.116286     -3.0421077     -6.5870236      79.92203       2567403.9    
    115000   300.20616      0.89485444     0.67889967     1.5737541      157.55151      89.494249      182.20367      272.22689      139.60121      65.224474     -42.614355      257.33314     -212.20552      2569063.5    
    116000   300.02443      0.89431272     0.67721047     1.5715232      157.45433      89.464802      182.22277     -90.215978     -140.47564      87.716173     -15.759656      151.57537     -8.6884133      2566903.1    
    117000   300.2301       0.8949258      0.67558665     1.5705125      157.41166      89.417939      182.24319      152.12238     -87.531411     -71.998442     -112.20542      56.361487     -271.79099      2565150.6    
    118000   299.79746      0.89363617     0.67633144     1.5699676      157.55733      89.429437      182.2784      -45.168338      95.751189      46.574407      142.95992      188.61969     -88.260669      2568350.7    
    119000   299.65174      0.89320183     0.67603439     1.5692362      157.53011      89.449276      182.20174     -264.98993     -559.22887     -63.849278      17.130715     -28.852863     -63.233589      2567396.4    
    120000   300.64277      0.89615589     0.67541082     1.5715667      157.45332      89.446693      182.20541     -23.128688      112.93957     -126.19253      31.534413      62.911449     -138.42392      2566122.5    
    121000   299.8531       0.89380203     0.67574263     1.5695447      157.42174      89.44967       182.36269      23.617031      132.05054      93.08003      -54.258992      96.505969     -238.46996      2567907.9    
    122000   299.77386      0.89356584     0.67542138     1.5689872      157.43867      89.421489      182.28165      102.30964      91.853309      16.179009      22.021778     -66.945681     -40.744021      2566234.2    
    123000   299.83083      0.89373564     0.6776189      1.5713545      157.47814      89.471905      182.16253     -285.31095      70.646071     -88.713314      60.909436      254.61565     -59.018711      2566646.1    
    124000   299.85114      0.89379618     0.67752361     1.5713198      157.48284      89.443768      182.13069      185.77348      494.77506     -11.550589     -238.2247       77.641699     -161.21137      2565467.1    
    125000   299.05708      0.89142925     0.67662405     1.5680533      157.54108      89.438945      182.16049      297.66212      482.78486      110.39013     -11.768964      99.139925      77.905246      2566697.4    
    126000   300.1379       0.89465095     0.67668283     1.5713338      157.53561      89.435783      182.26811      180.55842      180.68521     -270.21416      86.656142     -1.2119978      12.666694      2568033.9    
    127000   299.91902      0.89399853     0.67799382     1.5719923      157.54207      89.472283      182.26159     -92.873474     -121.18175      88.91165      -162.10684      173.91782     -116.73618      2569095.4    
    128000   299.8131       0.89368279     0.677845       1.5715278      157.47516      89.501097      182.27642     -58.541996     -88.545469     -184.21554      28.547173      203.08498      17.396993      2569040.1    
    129000   300.68483      0.89628125     0.67682625     1.5731075      157.50502      89.479025      182.1828      -12.987729      104.31481      239.42271     -38.951418      23.073255     -127.21481      2567574.3    
    130000   300.51533      0.895776       0.677205       1.572981       157.4841       89.453267      182.14321      266.62848     -290.14479      99.528931      4.2019581     -4.3365961     -113.60266      2565936.6    
    131000   299.89565      0.89392887     0.67766387     1.5715927      157.58421      89.392662      182.18688     -123.81072      269.42384      225.78601     -108.90712      49.785526     -24.914361      2566443.2    
    132000   299.72642      0.89342442     0.67737007     1.5707945      157.50972      89.446863      182.20045      160.72764      245.04212      113.55968      3.1006251      291.97461     -57.969931      2566976.6    
    133000   299.90482      0.89395618     0.67586083     1.569817       157.51441      89.457643      182.22209     -182.86027     -10.318175      13.336003      288.06234      37.460582     -17.507283      2567667.3    
    134000   300.03782      0.89435264     0.6769065      1.5712591      157.4682       89.481675      182.31116      183.77972     -62.462847      20.779555     -49.281942      108.31739     -28.195646      2568858.7    
    135000   299.63213      0.89314336     0.6788291      1.5719725      157.61723      89.485729      182.21143      229.0514      -160.50249     -148.08527      279.49916     -35.903089     -310.48602      2569999.8    
    136000   299.55785      0.89292194     0.67821419     1.5711361      157.63587      89.465427      182.23592      225.36278     -72.115603      61.362176     -218.841        146.95461     -348.66191      2570065.9    
    137000   299.61969      0.89310627     0.6812228      1.5743291      157.61332      89.472839      182.30867      281.52401     -124.71777     -80.060305      153.2254       244.19055     -37.679137      2570937.1    
    138000   299.5134       0.89278944     0.67909477     1.5718842      157.55729      89.43753       182.23857      171.36922     -44.082678     -11.18144      -1.3028169      61.112639     -171.71813      2568021.1    
    139000   300.57112      0.89594229     0.67689155     1.5728338      157.52998      89.480454      182.12423     -291.16055      246.83099     -88.727562      143.62587      58.76371      -107.42157      2567196.6    
    140000   300.51115      0.89576354     0.67764335     1.5734069      157.41838      89.46132       182.31025      5.6298794     -392.0769       105.76817      293.72782      129.20978     -100.55713      2567449      
    141000   299.93786      0.89405468     0.68115597     1.5752106      157.51492      89.480738      182.33545      4.8157289     -92.341169     -91.155994     -39.186213      160.52444     -76.367735      2569936.4    
    142000   299.60323      0.89305721     0.67978976     1.572847       157.54773      89.494342      182.34751      76.193243      132.56095     -154.46138      19.06056       39.862831     -119.05504      2571032.5    
    143000   299.67536      0.89327222     0.67900419     1.5722764      157.47881      89.444283      182.35036      208.38097     -150.8535       93.905583      367.49409      71.516646     -101.14615      2568510.5    
    144000   300.41878      0.89548821     0.67642462     1.5719128      157.48997      89.455792      182.25609      85.276345     -28.246733     -95.867518      211.52292      117.97807     -106.02452      2567694.9    
    145000   300.38798      0.89539639     0.67520343     1.5705998      157.57075      89.455138      182.30553     -144.40636     -62.759774     -112.16362      0.092804918   -26.334023     -178.76863      2569689.9    
    146000   299.95348      0.89410126     0.67789956     1.5720008      157.57832      89.389117      182.30725      112.62135      201.36733      237.42858     -444.60375      21.904754     -82.36517       2567941.1    
    147000   300.147        0.89467809     0.67766264     1.5723407      157.51105      89.430485      182.32478     -168.51165      257.07639     -56.852318      172.20744      117.92592     -123.20358      2568279.7    
    148000   299.28799      0.89211756     0.67676053     1.5688781      157.47927      89.425552      182.38102      39.581414      319.25128      175.1069      -85.814108     -168.16848      74.295627      2568411.8    
    149000   299.98225      0.894187       0.67806593     1.5722529      157.5943       89.420259      182.39907     -138.71234     -129.16962      42.010209     -156.3525       29.805563     -303.40232      2570390.1    
    150000   300.99445      0.89720416     0.67761167     1.5748158      157.63511      89.49933       182.34867     -124.31522      162.02521     -184.47831      72.330801      211.42247     -21.312315      2572618.2    
    151000   301.13053      0.89760979     0.67649456     1.5741043      157.60554      89.446677      182.32528     -402.83674      50.472464     -241.72401     -14.502641      163.78774     -162.89638      2570292.7    
    152000   300.50922      0.89575778     0.678756       1.5745138      157.51246      89.461577      182.22655      681.10911      273.83648      136.02775     -62.302663      146.54757     -47.005623      2567811.3    
    153000   300.22379      0.89490697     0.68004476     1.5749517      157.61984      89.467715      182.31449     -495.8662      -319.3429      -171.54285     -108.10606      145.29507     -52.347565      2570978.2    
    154000   299.61675      0.89309752     0.68120417     1.5743017      157.56468      89.455098      182.24256      139.46522      863.2952       200.92223      70.287599      246.26263     -79.019486      2568702.3    
    155000   300.08873      0.89450438     0.67815527     1.5726597      157.58002      89.466233      182.37339     -226.67999     -216.49914     -54.373444      218.21654      36.448596      14.630025      2571116.7    
    156000   300.60483      0.89604279     0.67645872     1.5725015      157.57564      89.443887      182.38751      25.940654      406.38766     -189.23963     -141.33856      140.77583     -81.027049      2570602.1    
    157000   300.25262      0.89499291     0.67553389     1.5705268      157.627        89.400644      182.28713     -245.64319     -23.281643     -94.947601      176.46335      92.217703     -138.03397      2568782      
    158000   299.83239      0.89374029     0.68064323     1.5743835      157.49061      89.44036       182.20505     -137.08742     -174.32641     -226.72581     -12.650563      243.45379     -106.63405      2566543.5    
    159000   299.85394      0.89380454     0.67835231     1.5721568      157.57206      89.431168      182.31485      342.65804     -20.187651      69.935585     -23.127487      166.4153       3.3550445      2569154.2    
    160000   300.78732      0.89658675     0.67783037     1.5744171      157.58605      89.451722      182.32182     -38.954924     -403.64535      46.381165     -115.85225     -89.873005     -28.80387       2570071      
    161000   299.78167      0.89358911     0.67648734     1.5700765      157.45431      89.444122      182.24826      54.762509      184.16443     -38.702684      178.31708     -4.3284737     -315.67322      2566668.4    
    162000   299.72142      0.89340952     0.6781162      1.5715257      157.50473      89.412236      182.32241     -248.1663       55.693594     -48.531953     -69.205063      111.20023     -45.818164      2567619.1    
    163000   300.43903      0.89554856     0.67688699     1.5724356      157.62801      89.417747      182.29646     -564.60909     -437.11802     -64.118353     -113.22251      14.12782      -139.26614      2569421.5    
    164000   300.63026      0.89611858     0.67694348     1.5730621      157.59476      89.458804      182.18279      208.77367     -270.61169      197.00888     -98.013446      83.937227     -28.48764       2568456.5    
    165000   300.4432       0.89556101     0.67710035     1.5726614      157.61794      89.458587      182.30048     -207.46001     -264.37252      106.77353     -27.174444      178.96651     -79.850296      2570487.4    
    166000   300.26393      0.89502662     0.67604309     1.5710697      157.53546      89.440307      182.32637     -72.218905     -126.70672      132.41132     -21.166699      134.23033     -123.13323      2568982.2    
    167000   299.41003      0.89248133     0.67854577     1.5710271      157.61204      89.458848      182.35438      255.47267      579.89738     -71.153884     -25.224282      291.2431       161.8081       2571158.8    
    168000   299.72369      0.89341629     0.6803322      1.5737485      157.5901       89.432696      182.33183      519.78989      263.7681       116.76336      49.369301      99.944859     -117.72877      2569731.5    
    169000   299.84451      0.89377641     0.676877       1.5706534      157.59816      89.446176      182.37286      8.5584057     -195.80925     -308.93199     -308.98107     -134.28573     -129.69994      2570828.7    
    170000   300.60445      0.89604166     0.67871715     1.5747588      157.63736      89.457584      182.31519     -139.10131      57.01071       261.76467     -208.0582       196.65646     -244.25106      2570982.8    
    171000   299.6109       0.8930801      0.67961415     1.5726942      157.61209      89.443705      182.25415     -182.87033     -7.3806307     -4.4319837     -118.78639     -22.424609     -235.64887      2569311.3    
    172000   300.41261      0.89546981     0.67903591     1.5745057      157.61551      89.447034      182.5587       68.819722      586.48936     -144.82715      100.78236     -7.6043702     -167.74285      2573756.3    
    173000   300.2097       0.89486499     0.67796361     1.5728286      157.5914       89.422977      182.42415     -137.68387     -157.71311     -216.08026     -285.65284      186.62438     -213.69195      2570774.4    
    174000   300.25768      0.89500799     0.67949842     1.5745064      157.54835      89.426189      182.34978     -288.20907      276.17085      159.40978      77.180379     -24.902944     -54.035158      2569116.7    
    175000   299.2639       0.89204574     0.67844884     1.5704946      157.59395      89.450401      182.25327     -86.896775     -90.21094      -66.459286     -113.99524      119.34893     -272.04515      2569195.5    
    176000   300.1749       0.89476125     0.67424951     1.5690108      157.43338      89.478713      182.32743      95.466228      9.2684943      211.246        14.463114      111.18766     -207.61668      2568434.9    
    177000   299.22202      0.89192091     0.67891314     1.570834       157.51392      89.452593      182.37296      62.993825     -193.98816      233.09935      20.48605       11.200167      98.419082      2569640.2    
    178000   299.71473      0.89338957     0.67878128     1.5721709      157.5858       89.445151      182.39963     -262.0285       134.23844      40.466541      67.722289      58.854725     -4.9854041      2570974.9    
    179000   299.45932      0.89262827     0.67581269     1.568441       157.56209      89.429449      182.26357     -246.79524     -282.59734      62.281282     -364.89918      179.4853      -272.2039       2568219.7    
    180000   300.22956      0.89492419     0.67837619     1.5733004      157.57116      89.45366       182.38587      185.31604     -452.51767      163.02319     -48.289058      126.80024     -104.57656      2570786.6    
    181000   299.99256      0.89421774     0.68141537     1.5756331      157.56126      89.417033      182.48339      208.6054      -46.134269      76.510783      66.821083      194.70134     -51.261446      2570946.5    
    182000   300.72018      0.89638661     0.67946407     1.5758507      157.57995      89.424535      182.3755       109.88038     -36.994032      63.727362     -138.73133      50.841695     -170.82012      2569946.8    
    183000   299.62818      0.89313158     0.67759517     1.5707268      157.62822      89.476995      182.35918      159.32573      35.75077      -66.581648      220.90386      59.786548     -36.884121      2572012      
    184000   299.98841      0.89420536     0.6776489      1.5718543      157.70248      89.440664      182.43838      178.35217     -193.70833      98.124548     -301.55251      35.16796      -146.92712      2573296      
    185000   300.11111      0.8945711      0.67786922     1.5724403      157.65027      89.427459      182.44789      127.03792      235.46751      143.28774      168.15403      37.052359     -76.201962      2572198.3    
    186000   300.46449      0.89562448     0.67978974     1.5754142      157.64839      89.39117       182.48648     -439.16706     -562.26622     -130.83232      21.223389     -37.490278     -117.11212      2571667.7    
    187000   299.86805      0.8938466      0.68094072     1.5747873      157.55853      89.422674      182.33869     -104.10722      36.141368     -52.127336     -155.69142      237.22831     -242.39451      2569025.4    
    188000   299.37651      0.8923814      0.67811744     1.5704988      157.68881      89.460456      182.30722     -395.85442     -303.44159      136.58501     -33.34617      -86.167088     -260.51359      2571792      
    189000   300.03444      0.89434256     0.67877425     1.5731168      157.67733      89.47101       182.43127      180.31384     -352.82507      162.32522      148.99578     -142.13451     -189.68903      2573658.2    
    190000   299.86093      0.89382536     0.67925593     1.5730813      157.68204      89.435439      182.40845     -312.85812      70.575978      74.015497     -6.4985047      93.508257     -229.54339      2572390.1    
    191000   300.20506      0.89485115     0.67833334     1.5731845      157.63077      89.390342      182.45485     -462.08956     -176.92299      53.822095      219.79283      15.813367     -134.48708      2570910.8    
    192000   299.80417      0.89365617     0.67841237     1.5720685      157.63088      89.409136      182.4226       40.490326     -18.917853      295.801       -146.0916      -22.715834      38.463962      2570998.5    
    193000   300.08841      0.89450345     0.67795988     1.5724633      157.63103      89.38579       182.41284      83.885617      254.55936     -123.90309      204.78456     -50.655603     -86.523079      2570192.2    
    194000   300.15844      0.8947122      0.67750356     1.5722158      157.64638      89.432455      182.41833      230.80402     -265.86313     -119.44025      24.377834      87.728321     -63.663842      2571861.8    
    195000   299.52561      0.89282586     0.676527       1.5693529      157.50671      89.424724      182.33914     -55.175792      9.3093665     -15.757053      206.60085      143.1768      -167.16419      2568245.7    
    196000   300.97261      0.89713906     0.67875616     1.5758952      157.60702      89.390833      182.38197     -13.262778      201.0394      -178.1107       49.642878      201.8302      -65.073889      2569510.8    
    197000   299.5646       0.89294206     0.67777703     1.5707191      157.66827      89.409474      182.49959     -6.2708228      269.60153      89.84106       11.896922      49.338244     -225.02338      2572703.5    
    198000   299.65434      0.89320956     0.67722655     1.5704361      157.63124      89.4272        182.30274      51.239552     -193.64303     -76.694099      31.002333     -101.07305     -147.92852      2569834.3    
    199000   299.68953      0.89331447     0.67919329     1.5725078      157.68242      89.410127      182.2395      -313.60899     -99.81482       273.4886      -26.753037      123.64874     -144.59639      2569286.2    
    200000   299.9051       0.89395703     0.67724819     1.5712052      157.63685      89.400624      182.44581     -24.151243      430.24662     -70.71021      -196.78115      115.77312     -72.562412      2571178.3    
    201000   299.9775       0.89417286     0.67895786     1.5731307      157.58542      89.423927      182.48118      18.224827     -93.407342     -113.97125      151.05742      203.83399      20.067389      2571507.7    
    202000   300.20373      0.89484718     0.67904124     1.5738884      157.685        89.38727       182.49181     -134.04359     -101.13249     -142.34454      99.741923      179.30241     -21.739143      2572227.8    
    203000   299.45764      0.89262325     0.67867078     1.571294       157.65737      89.43282       182.47538     -94.482003      108.75268     -175.5085      -131.12565      5.2301047     -115.02359      2572855.9    
    204000   300.07019      0.89444912     0.68241982     1.5768689      157.70446      89.434833      182.53167      83.752493      234.11711     -290.68378     -112.55687      233.91398      5.8396965      2574476.3    
    205000   299.91812      0.89399583     0.68003837     1.5740342      157.70231      89.382824      182.382        169.73333     -108.52553      46.932797     -131.35392     -118.06018     -44.560608      2570834.5    
    206000   300.38035      0.89537366     0.67928528     1.5746589      157.69674      89.397832      182.36445     -49.099341      197.704       -175.62851      138.00918     -9.0554408     -47.898666      2570928      
    207000   299.82618      0.8937218      0.67780781     1.5715296      157.6312       89.376163      182.39295      46.83199       102.64888      189.11551      2.755067       23.47307      -162.50443      2569638.1    
    208000   299.62266      0.89311513     0.67839903     1.5715142      157.71272      89.413491      182.48848      44.295552      44.052796      43.275886      53.96422       9.6793217     -233.4887       2573387.8    
    209000   299.38047      0.89239323     0.67848856     1.5708818      157.63932      89.430285      182.40091      38.485261     -2.2026873     -99.045466      14.988994      63.842781     -100.29665      2571438.7    
    210000   300.07765      0.89447138     0.67815809     1.5726295      157.56456      89.478304      182.46404      336.53304      221.87805     -45.827971     -22.720539      35.300511     -117.10014      2572489.3    
    211000   300.1293       0.89462534     0.67935582     1.5739812      157.759        89.395623      182.56132     -162.31841      63.480173      113.42008     -54.707588      62.884689     -257.10529      2574655.7    
    212000   300.74803      0.89646964     0.6776813      1.5741509      157.66668      89.381976      182.44165      256.72073      118.42995      250.84805     -34.424382      160.51321     -284.59804      2571069.9    
    213000   300.55024      0.89588006     0.6809141      1.5767942      157.64942      89.406562      182.39855      341.45732     -10.756816      101.33324     -46.534596      22.902348     -75.446519      2570887.9    
    214000   299.54626      0.89288739     0.67758548     1.5704729      157.66107      89.420072      182.3796       78.201489      216.13462      82.779407      116.08394      180.63304     -31.981893      2571199.3    
    215000   299.84464      0.8937768      0.67889569     1.5726725      157.55608      89.435026      182.60528      428.67674      285.28315     -89.292119      183.5257       94.93537      -167.96939      2573096.9    
    216000   300.29437      0.89511737     0.67846788     1.5735852      157.66107      89.429289      182.47471      202.33787     -316.27837      9.3199901      32.832757      36.109414     -8.1730095      2572805.3    
    217000   300.56674      0.89592926     0.67732583     1.5732551      157.61917      89.403073      182.48969     -111.57366      124.81273      45.838533     -15.472575      88.715448     -70.081793      2571578.7    
    218000   299.94752      0.89408348     0.6800835      1.574167       157.64708      89.398093      182.41609      399.29462      482.9255      -129.8656      -168.66622      59.886251     -179.23265      2570853.4    
    219000   299.97354      0.89416105     0.68033953     1.5745006      157.62913      89.445802      182.38764      476.97609     -46.150697     -31.193237      24.866809     -113.53005     -174.30251      2571531.5    
    220000   299.63345      0.8931473      0.68065147     1.5737988      157.51806      89.458086      182.37935      314.18609      104.28837     -70.309911     -187.08072      254.59596      41.296199      2569955.5    
    221000   299.93912      0.89405844     0.67848158     1.57254        157.72684      89.439098      182.46421      15.522555     -391.49113      10.802002     -25.202264      98.986599     -56.125419      2574012.7    
    222000   299.55952      0.89292693     0.67823191     1.5711588      157.65809      89.405417      182.4381       38.514132      133.22594     -114.46613      106.98269      135.30496     -97.009578      2571553.9    
    223000   299.58672      0.89300801     0.67829018     1.5712982      157.73719      89.398761      182.46444     -541.11909     -100.07916      122.00927     -95.126217      35.693303     -96.285206      2573023.9    
    224000   300.08222      0.89448498     0.68151225     1.5759972      157.70735      89.391762      182.49608     -267.38937      260.8977      -21.233414      206.22568      228.54289     -263.93602      2572782      
    225000   299.96538      0.89413671     0.68066223     1.5747989      157.71258      89.392681      182.4724       433.97719     -383.34771     -82.712766      13.645939      216.62946     -199.93352      2572559.8    
    226000   300.24182      0.89496073     0.67716856     1.5721293      157.69601      89.421938      182.42133     -24.974096     -134.2444       95.256329     -207.88844      141.32771     -9.3728708      2572411.3    
    227000   300.50328      0.89574009     0.680006       1.5757461      157.65664      89.405772      182.42842      132.72383      102.51636     -73.77696       178.1682       41.48732      -18.821116      2571404.1    
    228000   299.75706      0.89351576     0.67957546     1.5730912      157.69504      89.419281      182.34258     -478.99676      249.51755     -126.58629     -44.785553      30.112247     -57.360332      2571208.6    
    229000   299.80612      0.89366199     0.67997656     1.5736385      157.74803      89.442546      182.56864      276.92687      199.21434     -86.528235     -225.69138      32.707564      16.358661      2575931.3    
    230000   300.60096      0.89603124     0.67880629     1.5748375      157.6987       89.443681      182.38207     -82.451695     -15.394308      205.50247      126.99355      202.7563      -86.153851      2572526.8    
    231000   300.24426      0.894968       0.67918894     1.5741569      157.7257       89.439815      182.40328      250.5395       311.23829      230.54687      121.86317      90.67203      -55.506508      2573155.4    
    232000   299.25972      0.89203328     0.68086078     1.5728941      157.66532      89.437901      182.45436     -461.61603     -160.68946      145.52607      128.39349      166.73748     -61.846675      2572835.5    
    233000   300.78433      0.89657784     0.68207829     1.5786561      157.73782      89.474774      182.49248     -296.64879     -506.34297      155.63104      138.4655       24.45564      -233.45089      2575617.9    
    234000   300.01812      0.89429392     0.67819933     1.5724932      157.72815      89.404127      182.41939     -148.33242      171.9332       43.738963     -94.531088      198.86263     -63.294292      2572395.7    
    235000   300.08487      0.8944929      0.67850529     1.5729982      157.69224      89.459016      182.28777      210.86217     -214.48819     -13.058164      163.82822     -88.589502     -114.33617      2571532.2    
    236000   300.38113      0.89537599     0.67980694     1.5751829      157.6338       89.417543      182.5412       133.20967      194.12147      72.576758      167.88259      75.18332      -67.718227      2572959.6    
    237000   299.32055      0.89221462     0.67947147     1.5716861      157.60379      89.37891       182.56411     -2.2227454      176.78576     -34.397023     -124.35728      65.251593     -170.38805      2571681.2    
    238000   300.16773      0.89473987     0.67749076     1.5722306      157.68618      89.399347      182.41115     -394.78562      75.982112     -144.85313      125.83743      211.96836     -85.526832      2571457.4    
    239000   299.48543      0.89270608     0.67833396     1.57104        157.7394       89.405466      182.39928     -287.38112      226.1891       57.402402      43.358719      60.342449     -107.05115      2572334.2    
    240000   299.9534       0.89410099     0.67577683     1.5698778      157.64996      89.410927      182.33438     -68.698704     -34.748178     -55.13924       164.55217     -70.964975     -226.41641      2570117.8    
    241000   300.08191      0.89448407     0.68052619     1.5750103      157.61754      89.405719      182.44377      85.481509      322.13284      43.247671     -13.765732     -19.666055     -125.3631       2570981.1    
    242000   300.07856      0.89447408     0.67829965     1.5727737      157.65965      89.42579       182.44958     -637.69624     -362.91814     -383.6536      -70.551125      63.88093      -120.35671      2572327.2    
    243000   300.03407      0.89434147     0.67957793     1.5739194      157.50601      89.380083      182.44311      56.700294      187.23932     -230.90671     -247.00639      177.5386      -123.68735      2568416      
    244000   300.13964      0.89465614     0.67968207     1.5743382      157.6498       89.438979      182.49621      36.600519      188.72585     -47.865615     -156.2026       213.16473     -155.88882      2573203.3    
    245000   300.29689      0.89512487     0.67888319     1.5740081      157.70773      89.411204      182.38948      384.12632     -173.34182     -273.97662      135.98539     -25.033507     -113.76937      2571844.7    
    246000   299.96663      0.89414045     0.67688033     1.5710208      157.69434      89.418173      182.20561     -4.3420654      74.186257      78.976151     -111.30951     -32.767044      38.584333      2569233.9    
    247000   299.47377      0.89267134     0.6788108      1.5714821      157.75067      89.432948      182.30633     -315.65699     -260.88233      185.73164     -50.973142      175.01469     -6.5333413      2571997.3    
    248000   299.67975      0.8932853      0.67869672     1.571982       157.59486      89.446122      182.27371     -45.351551     -85.987817      76.457992      8.5887954      249.71714     -165.07093      2569375.6    
    249000   299.92782      0.89402476     0.67899185     1.5730166      157.64585      89.381886      182.42198      96.331516      159.48292     -49.909316      103.42179     -45.809431      82.681692      2570450.4    
    250000   300.25217      0.89499158     0.67713631     1.5721279      157.60532      89.387204      182.43473      57.828308     -184.46544      9.1502669      34.754026      85.200344     -273.49269      2570122      
    251000   299.47726      0.89268174     0.67724855     1.5699303      157.5778       89.427081      182.32196     -10.778782      23.162029      240.15084      247.03662     -79.911315     -236.40155      2569230.6    
    252000   300.31148      0.89516837     0.67795332     1.5731217      157.49891      89.462628      182.38375     -93.924651      385.61762      111.12905     -67.376201      74.249322     -65.156025      2569835.6    
    253000   299.50652      0.89276893     0.68140024     1.5741692      157.70809      89.47651       182.41838      75.430812     -50.667931      18.598334     -155.43402      206.67581     -205.17139      2574136.8    
    254000   298.85879      0.8908382      0.68086883     1.571707       157.59055      89.446456      182.37508      48.530848     -203.40137     -181.5435       215.1528       31.272485     -76.814513      2570743.7    
    255000   299.87372      0.8938635      0.68040911     1.5742726      157.60937      89.425318      182.42767     -122.61685      320.49146     -12.897995      56.635403      199.84374     -130.55926      2571184.5    
    256000   299.8772       0.89387385     0.67904934     1.5729232      157.65731      89.398686      182.24306     -426.3568      -294.32176     -131.44454      134.71718     -63.655984     -101.66621      2568598.6    
    257000   300.60942      0.89605647     0.67765095     1.5737074      157.60789      89.430467      182.19725     -254.75867      157.97376      190.06431     -144.19563      276.33551     -271.34994      2568060.6    
    258000   300.19009      0.89480652     0.67987038     1.5746769      157.66052      89.454659      182.30335      200.88923      247.37398      311.35166      215.14284      135.75648     -351.89154      2571109.5    
    259000   299.8461       0.89378118     0.67872904     1.5725102      157.62221      89.418029      182.36531      139.61142      132.75666      13.586399      144.59897      222.08529     -75.932918      2570305.5    
    260000   301.08485      0.89747362     0.67775819     1.5752318      157.56283      89.401953      182.27563      200.51715      398.5098      -89.202362     -294.44954     -74.126965     -282.0494       2567612.1    
    261000   300.3127       0.89517201     0.67792065     1.5730927      157.59405      89.476902      182.23838     -55.928002      133.22629      190.00273      129.98978      261.02848      60.658862      2569748.3    
    262000   299.62088      0.89310983     0.68048929     1.5735991      157.66185      89.447164      182.43804     -55.260139      51.61418      -14.417881     -220.94291      101.35009     -202.55265      2572815.2    
    263000   300.43306      0.89553076     0.67877062     1.5743014      157.63074      89.431624      182.37171     -356.87747      121.87264     -134.58955      38.615872      18.10417      -92.464675      2570925.5    
    264000   299.43637      0.89255984     0.67486383     1.5674237      157.61617      89.451737      182.23544      267.5558       207.67696      194.84533     -102.24406     -21.31539      -179.09484      2569344.8    
    265000   300.03306      0.89433846     0.68043985     1.5747783      157.68244      89.456327      182.40214     -6.3390686      40.113072     -231.27956      127.4544      -33.17251       18.554395      2572908.4    
    266000   300.56599      0.89592701     0.67750393     1.5734309      157.6061       89.45339       182.36964     -43.325257      183.41503     -29.818832     -21.781159      15.016882     -211.97452      2571120.1    
    267000   300.4956       0.89571719     0.68155432     1.5772715      157.5015       89.486361      182.42441     -168.65127     -296.4092      -444.28762      24.388809      247.98556     -136.22016      2571132.7    
    268000   300.04008      0.89435939     0.67574087     1.5701003      157.57952      89.480014      182.28105      122.66739     -2.3967971      197.48305      93.109759      172.721       -162.3271       2570202.4    
    269000   299.35423      0.89231499     0.67865797     1.570973       157.64735      89.425964      182.28965     -86.374844     -198.81851     -349.89501      59.653259      13.858184     -257.79265      2569877      
    270000   299.73993      0.89346469     0.67540869     1.5688734      157.58593      89.459055      182.23406     -251.90202     -366.21045     -42.989548      72.17106       89.546252     -65.313256      2569042.5    
    271000   299.90751      0.89396421     0.6775757      1.5715399      157.56219      89.446025      182.25571      387.89985      126.02458      86.32173      -71.865106      138.44038     -101.26383      2568586.4    
    272000   299.6335       0.89314746     0.67865845     1.5718059      157.58311      89.471176      182.32618      163.33471     -73.199548     -116.73718      49.985284      79.445693     -221.28045      2570643.4    
    273000   300.73263      0.89642372     0.67682963     1.5732533      157.50683      89.435045      182.35866     -239.74494     -171.28278     -25.549632     -61.864129      137.34563     -202.15381      2568819.2    
    274000   299.78388      0.89359569     0.67917555     1.5727712      157.51696      89.418535      182.28835     -311.54396      237.95044     -314.38615      20.680449     -33.767485     -39.270496      2567519.7    
    275000   299.98168      0.89418529     0.67407115     1.5682564      157.59285      89.437639      182.31562     -10.364051     -309.65222     -121.419        14.12314      -74.165162     -15.650824      2569689.9    
    276000   300.55105      0.89588248     0.67806931     1.5739518      157.55692      89.500857      182.24182      147.45717      344.52577      286.55045     -88.58384       221.68126     -38.399467      2569879.3    
    277000   299.69118      0.89331939     0.68020317     1.5735226      157.66349      89.483041      182.18835      185.5409      -70.689462      148.95749     -15.899813      119.38288      42.711433      2570351.1    
    278000   299.85945      0.89382097     0.67844661     1.5722676      157.60744      89.453944      182.31722      113.0872       111.74313      36.579514     -75.684814      251.21433     -201.56318      2570418.8    
    279000   299.66914      0.89325367     0.67894612     1.5721998      157.54885      89.429962      182.32514     -47.823657     -42.305471      29.205398     -22.149623      172.605       -221.01844      2568886      
    280000   300.18214      0.89478283     0.68028064     1.5750635      157.52681      89.456544      182.20872      116.89378     -226.70201     -154.56119     -49.6699       -58.238681     -156.80017      2567649.5    
    281000   300.5517       0.89588443     0.67917291     1.5750573      157.62959      89.443092      182.3009      -180.57733     -698.07244      180.735        51.341274      12.015869     -135.36453      2570238.1    
    282000   299.47587      0.89267757     0.67880361     1.5714812      157.78674      89.431959      182.18756     -75.950882      229.88648      355.52536      146.34644      189.54873     -147.01862      2570881      
    283000   299.7969       0.8936345      0.67922251     1.572857       157.586        89.455469      182.27915     -28.129627      109.1606       56.190526     -9.8995862      63.665557     -19.739804      2569576.3    
    284000   300.01553      0.89428619     0.67883626     1.5731225      157.58519      89.402638      182.36842     -332.16156      147.30118     -87.418429      103.19695      313.27961     -35.906338      2569303.3    
    285000   299.77779      0.89357755     0.67944837     1.5730259      157.56509      89.433925      182.3984       209.87439     -104.57071     -78.596272      280.79884      63.931706      22.189589      2570297      
    286000   300.3935       0.89541285     0.67725074     1.5726636      157.53977      89.464799      182.23971      40.936325      17.180639      32.995863      104.78102      142.67041     -41.549989      2568534.6    
    287000   300.67777      0.89626019     0.67994361     1.5762038      157.56549      89.493403      182.32618      84.370338     -260.1877       0.68979739    -409.19125      61.672556     -132.51885      2570994.6    
    288000   299.00675      0.89127924     0.67803791     1.5693172      157.57005      89.465476      182.25781     -81.424573     -131.59628     -88.692634     -62.426368      176.30177     -49.404017      2569302.9    
    289000   300.29868      0.8951302      0.67722846     1.5723587      157.61538      89.421466      182.12318      119.66194     -194.3598       105.20581      64.523872      119.14115     -43.51433       2566880.1    
    290000   299.80558      0.89366038     0.67810592     1.5717663      157.53617      89.447083      182.27022      179.3947      -370.19226      65.38793       158.24592     -50.931682     -91.856089      2568397.2    
    291000   300.92985      0.89701161     0.67872742     1.575739       157.56017      89.44598       182.31618     -195.074        85.728434     -20.59219       67.893474      141.59112     -167.45786      2569404.5    
    292000   300.26272      0.89502302     0.67699935     1.5720224      157.59286      89.513155      182.25088      13.366312     -23.029619      230.57567      146.53714      77.330732     -115.17649      2570946.3    
    293000   299.70937      0.8933736      0.67932312     1.5726967      157.63204      89.453557      182.36304      105.56079     -675.3484      -50.984526     -25.809462      178.43567     -93.420146      2571455      
    294000   299.90353      0.89395236     0.67795829     1.5719106      157.63493      89.454885      182.34843     -73.437165      211.60964      163.96799     -7.4519545      102.5448      -39.220272      2571334.3    
    295000   299.37111      0.89236531     0.6797199      1.5720852      157.62035      89.444143      182.15674     -159.72324     -117.81989      132.72016     -84.946299     -10.637191     -93.530962      2568085.3    
    296000   299.78113      0.89358751     0.67696934     1.5705568      157.55269      89.463979      182.22329      106.99216      117.63561      25.57488      -110.42639      86.244833     -221.06238      2568490.3    
    297000   300.35977      0.89531231     0.67910873     1.574421       157.58419      89.457375      182.36811     -46.388993     -75.705168     -44.815267      50.506531     -48.780879     -171.20782      2570855.7    
    298000   300.216        0.89488376     0.67850776     1.5733915      157.52297      89.456502      182.25481      11.445717     -110.60749     -349.29805      180.00666      65.849423     -160.5796       2568235.3    
    299000   300.06429      0.89443156     0.67663866     1.5710702      157.6645       89.452944      182.3742       240.16251      246.08891      47.075227      89.944529      22.065018     -274.76837      2572124.4    
    300000   299.26922      0.89206159     0.67764721     1.5697088      157.68938      89.459529      182.32474      71.787644     -325.62222     -69.935854     -121.62168      24.576801     -298.03637      2572021.9    
    301000   299.51747      0.89280157     0.67823868     1.5710403      157.61239      89.415476      182.34639      217.7105       740.12786      32.52237       89.051155      67.49135      -83.300524      2569805.2    
    302000   300.6234       0.89609813     0.67658658     1.5726847      157.62753      89.43373       182.44028     -206.87717      69.647582     -241.67355     -200.36099     -7.0483332     -152.44385      2571900.4    
    303000   300.29016      0.89510482     0.68035538     1.5754602      157.60066      89.465025      182.34407     -13.420077     -175.38694      145.6944       239.86853      37.931056     -133.21038      2571005.2    
    304000   299.42362      0.89252183     0.6778705      1.5703923      157.65094      89.456866      182.25416     -63.301975     -304.95861     -79.745308      114.37576      129.58273     -97.820442      2570322.9    
    305000   300.9926       0.89719866     0.67842513     1.5756238      157.54916      89.444887      182.22071      296.10023      337.13105      57.74321       183.7022      -13.920728     -101.34625      2567848.2    
    306000   299.64462      0.89318059     0.67583859     1.5690192      157.56719      89.397042      182.32351      457.06971     -90.451004     -93.832657     -135.69717      51.26687      -145.20858      2568216.4    
    307000   300.12353      0.89460813     0.67619047     1.5707986      157.63146      89.47664       182.36817     -177.88097     -32.441974      123.61115     -113.58479     -39.721017     -26.423068      2572181.5    
    308000   299.91607      0.89398972     0.67780458     1.5717943      157.5954       89.418052      182.27257      269.01187      70.458307     -284.49389      128.38466      48.65198       9.0069339      2568562.1    
    309000   300.25011      0.89498544     0.67793591     1.5729214      157.50557      89.475549      182.24837     -99.291715      142.49961     -22.871983     -110.99311      82.166779     -163.8289       2568407.7    
    310000   300.06143      0.89442302     0.67760427     1.5720273      157.63582      89.465504      182.44863     -590.0657       58.959197     -452.8828       76.057868      133.60877     -33.400216      2573067.1    
    311000   299.91287      0.8939802      0.6782457      1.5722259      157.60133      89.451702      182.27484      74.200451      251.76487     -105.81828      162.80789      78.983003     -67.388827      2569657.3    
    312000   299.4092       0.89247885     0.68004316     1.572522       157.50036      89.496254      182.33832      55.129865     -260.49918      28.542531      266.89246      14.386927     -150.09396      2570184.8    
    313000   300.09009      0.89450844     0.67728456     1.571793       157.62351      89.46695       182.22124     -558.25864     -109.18002      30.395615     -260.34374      259.24329      65.050146      2569701.1    
    314000   300.03441      0.89434247     0.6764073      1.5707498      157.59976      89.425359      182.27894     -51.611385      51.094885     -196.17789      28.472312      87.133266      85.028311      2568932.7    
    315000   299.99743      0.89423225     0.67796205     1.5721943      157.67136      89.424343      182.16849     -150.04136      46.633054     -15.05848      -5.1836672      146.867       -305.96078      2568513.4    
    316000   300.61385      0.89606967     0.67721976     1.5732894      157.59195      89.465705      182.23688     -294.55878     -170.41693      151.83958      193.59292      135.0881      -88.492275      2569371.4    
    317000   299.25733      0.89202616     0.67659432     1.5686205      157.60898      89.469978      182.20605      256.12066      242.29742     -177.68108      38.245063      144.59942     -102.91361      2569337      
    318000   299.6413       0.8931707      0.6763967      1.5695674      157.59459      89.434665      182.28146     -168.16183      48.274581     -56.659921      212.48409      124.86565      7.0544184      2569151.4    
    319000   299.83578      0.89375039     0.67536176     1.5691122      157.512        89.432408      182.16911      127.3805       181.75404     -51.407933     -97.327657      158.25645     -187.36169      2566157.4    
    320000   300.19131      0.89481017     0.6794521      1.5742623      157.58579      89.423583      182.32018      136.72565     -183.51336     -219.17837     -136.32131      1.0249809     -119.30666      2569235.2    
    321000   299.9866       0.89419998     0.67679258     1.5709926      157.55553      89.409665      182.40066      234.12072      275.02557      224.5629       125.36767      250.31017     -213.41206      2569475.8    
    322000   300.04118      0.89436267     0.67864314     1.5730058      157.64936      89.430645      182.176       -168.5632      -22.306024     -91.808215     -43.589696      177.72207     -138.94553      2568442      
    323000   299.55817      0.8929229      0.67860583     1.5715287      157.56498      89.455897      182.31621      166.06062     -80.456143     -160.80932     -294.07192      10.527489     -128.05987      2569768.2    
    324000   300.65948      0.89620567     0.67712072     1.5733264      157.51808      89.456225      182.27064      297.78221     -117.7161       76.787752     -32.637651      65.768154      171.28749      2568370.7    
    325000   300.09024      0.89450888     0.67621111     1.57072        157.54867      89.469585      182.22256     -236.37144      102.96756     -127.06883      131.06687      150.05048      1.6327438      2568575.3    
    326000   300.47412      0.89565317     0.68018954     1.5758427      157.63384      89.420088      182.319        288.48157      67.183691      48.999087     -20.964729      147.85786     -161.30445      2569901.6    
    327000   299.61387      0.89308892     0.67989196     1.5729809      157.60667      89.43251       182.34435      27.027532      242.76262      272.80081      78.579819      66.862096     -227.43633      2570172.7    
    328000   299.19631      0.89184427     0.68073916     1.5725834      157.5839       89.474766      182.2947       147.74417     -375.31372     -99.672896     -58.479559      51.741468      111.55601      2570315.6    
    329000   300.76787      0.89652879     0.6779141      1.5744429      157.60128      89.421987      182.2948       78.064815     -33.572731      63.583566     -92.576989      67.50269      -5.436572       2569084.2    
    330000   299.83122      0.89373682     0.68006875     1.5738056      157.6671       89.401069      182.41753     -220.27897     -39.798316     -128.10363      89.32899       125.34736      15.886792      2571285.9    
    331000   300.01002      0.89426976     0.67572157     1.5699913      157.63544      89.38564       182.34708      163.07742      56.753028      183.40213     -379.52974      57.991279     -46.193562      2569333.2    
    332000   300.9761       0.89714946     0.67433046     1.5714799      157.53705      89.441719      182.24574     -207.8267      -124.87223     -18.047836     -187.00896      77.372491     -50.716933      2567912.6    
    333000   300.04829      0.89438384     0.68016183     1.5745457      157.58316      89.488279      182.30389     -77.391963     -573.33891     -3.4502479      6.6019439     -13.910891     -88.503067      2570821.4    
    334000   300.10618      0.89455641     0.67784969     1.5724061      157.57079      89.446836      182.40816      601.68098     -40.001528     -4.5197229      335.19093      216.72557     -162.61896      2570898.7    
    335000   299.86162      0.89382741     0.67828428     1.5721117      157.58189      89.480934      182.25928      46.500119      34.264747      238.00184      187.9141       192.71673     -214.72273      2569960.6    
    336000   299.37328      0.8923718      0.6768087      1.5691805      157.63033      89.415606      182.29501     -234.97072     -74.169884     -68.776428      200.6947       35.201335     -205.18207      2569377.4    
    337000   299.43458      0.89255451     0.67861234     1.5711668      157.60149      89.445508      182.37386     -29.085665      186.24513     -153.05301     -122.86273      90.706423     -142.01111      2570877.7    
    338000   299.99146      0.89421445     0.67956483     1.5737793      157.65086      89.431382      182.33192      47.87402      -36.92262       596.95918     -19.92664       30.413392     -253.0246       2570685.7    
    339000   300.03947      0.89435757     0.67775825     1.5721158      157.59812      89.465725      182.30739      58.979997     -206.06993     -121.62072     -16.056839      71.99817      -248.73137      2570466.7    
    340000   299.85864      0.89381856     0.67869041     1.572509       157.70719      89.435677      182.24283     -311.4343      -138.11677      104.10137      167.17896      39.915769     -45.691596      2570471.3    
    341000   300.78354      0.89657548     0.67940218     1.5759777      157.68142      89.440489      182.35869     -486.80993     -389.24926      54.660707      258.66106      184.40257      88.415686      2571823.4    
    342000   299.32745      0.89223516     0.67922269     1.5714579      157.62676      89.458121      182.28611      192.79108     -166.75647      7.4988528     -70.439542      17.178799     -114.61815      2570415.4    
    343000   300.34968      0.89528225     0.68069764     1.5759799      157.55262      89.441368      182.44871     -99.504104     -130.0471       69.632894     -105.82545      162.783       -65.083321      2571016.4    
    344000   300.23924      0.89495305     0.67804828     1.5730013      157.59169      89.422494      182.29876     -7.4523893      58.748593      74.40485       135.12637      196.22711     -70.641303      2568998.3    
    345000   299.97276      0.89415871     0.67678777     1.5709465      157.58046      89.408374      182.25548      321.88122      174.47701      245.82387     -338.27448      72.821019     -108.76473      2567799.7    
    346000   300.09151      0.89451267     0.68010192     1.5746146      157.64678      89.420844      182.3282      -50.985431      669.74669     -80.596768      154.34442      43.936314     -56.30597       2570263.8    
    347000   299.87491      0.89386704     0.67898146     1.5728485      157.6681       89.435146      182.30337      118.08854     -393.16805      108.46813     -98.538948     -64.865241     -88.923823      2570672.5    
    348000   300.24945      0.89498348     0.68126969     1.5762532      157.66278      89.454345      182.389       -113.54585     -470.22908      38.62764      -15.131231     -54.731303     -220.75826      2572345.3    
    349000   299.95722      0.89411239     0.67857313     1.5726855      157.6455       89.463294      182.29345      160.61778     -111.32282      27.150785     -152.43942      100.39338     -175.39626      2570973.2    
    350000   300.67961      0.89626569     0.67558762     1.5718533      157.57757      89.463417      182.31887      420.25215     -110.15877      70.768958      144.00747      11.139742     -228.90644      2570227.1    
    351000   300.34388      0.89526495     0.67722033     1.5724853      157.5636       89.485613      182.19193     -103.40246      54.686927     -223.68204     -52.87887       67.804643     -118.29364      2568847.1    
    352000   300.51838      0.89578511     0.67601415     1.5717993      157.59631      89.448119      182.33037      61.973905     -10.940983     -60.011882     -140.87191      42.814504     -150.48577      2570255.3    
    353000   300.29748      0.89512665     0.68089194     1.5760186      157.60594      89.439919      182.38873      515.49746     -149.68397      100.41775      22.1265        221.28178     -333.05687      2570999.5    
    354000   300.0005       0.8942414      0.68114449     1.5753859      157.54818      89.478658      182.39135      27.582017      92.559036     -209.83117     -107.07292      124.51268     -109.54867      2571207.3    
    355000   299.7293       0.89343301     0.67868069     1.5721137      157.5377       89.476327      182.31141     -432.18637     -359.20399     -29.078375      28.68502       116.90181     -153.55647      2569842.4    
    356000   300.12225      0.89460433     0.67804322     1.5726475      157.64057      89.435917      182.32648     -131.72884     -128.11363      259.34109      46.445783      163.23157      18.852383      2570571.6    
    357000   299.85981      0.89382205     0.68033471     1.5741568      157.73194      89.41102       182.28809     -514.45291      215.97842     -93.176774     -198.53347     -8.0775362      63.836279      2570804.1    
    358000   299.67826      0.89328086     0.6783465      1.5716274      157.66333      89.451147      182.27757      57.539609      468.18493     -215.13661      247.60689      103.80258     -172.0049       2570690.9    
    359000   299.94621      0.89407957     0.67763599     1.5717156      157.59701      89.472447      182.34162      121.97295     -158.17177     -54.921273      30.78067       105.64837     -92.531074      2571124.5    
    360000   300.59108      0.89600181     0.68018311     1.5761849      157.55995      89.459415      182.31305      1.3075441      56.062873     -291.92077     -232.52976      113.47521     -57.756958      2569742.8    
    361000   300.07521      0.8944641      0.67834302     1.5728071      157.58537      89.399464      182.28499     -70.028136      239.95608      161.08789      86.913162      131.13436     -105.00313      2568039.5    
    362000   300.53873      0.89584576     0.67635608     1.5722018      157.6725       89.398141      182.31023     -118.36733      141.75474      224.04177     -107.21095     -13.379405      35.259953      2569777.3    
    363000   300.60055      0.89603004     0.68013071     1.5761607      157.70908      89.389202      182.39386     -163.68742      164.23541     -102.89051     -79.313655      83.048242     -41.709185      2571295.4    
    364000   300.31874      0.89519001     0.67916434     1.5743544      157.66217      89.448294      182.42344     -47.133443     -8.3395743     -153.30163      26.434423      62.925533     -169.23679      2572647      
    365000   299.93206      0.8940374      0.67948301     1.5735204      157.53693      89.45055       182.2914      -5.4697047     -367.50799     -47.543181     -62.09578       156.92114     -25.35723       2568807.7    
    366000   300.176        0.89476453     0.67573877     1.5705033      157.53041      89.480938      182.3402      -203.48223     -120.2226      -3.0615059     -60.173256      32.108863      8.0379503      2570261.8    
    367000   300.65522      0.896193       0.6796485      1.5758415      157.6287       89.435437      182.28444     -256.30546      263.29965      111.70283     -146.04708      114.69129     -225.02525      2569771.6    
    368000   300.31742      0.89518608     0.67710133     1.5722874      157.6962       89.475567      182.26785     -154.4389       6.6949979     -101.46536      210.33347      107.77433     -62.156111      2571791.4    
    369000   300.05227      0.89439572     0.6777484      1.5721441      157.70002      89.458734      182.24605     -42.138042     -60.247602      225.27607      103.72652      132.00766     -127.59143      2571062.5    
    370000   299.58196      0.8929938      0.67812837     1.5711222      157.54076      89.446305      182.40788     -65.341951     -50.082443     -57.93494       283.48761      30.485967     -43.549087      2570389.5    
    371000   300.33578      0.89524081     0.67725473     1.5724955      157.50602      89.45911       182.38146      230.49879     -46.636526      121.10506     -129.5638       86.587238      18.004927      2569818.4    
    372000   299.4694       0.8926583      0.67683547     1.5694938      157.51465      89.515356      182.25107      31.14192      -29.46547       43.501696      229.75718      171.5926      -222.34919      2569736.5    
    373000   300.22415      0.89490806     0.67737342     1.5722815      157.58482      89.492906      182.3018      -185.12591     -167.7858      -9.7810859      129.02611      98.663753     -27.348942      2570951.8    
    374000   300.08907      0.89450542     0.67939619     1.5739016      157.68531      89.433726      182.32783     -33.622445     -36.781991      95.565954      208.20523      133.17807     -274.60203      2571257.1    
    375000   300.52526      0.8958056      0.67931442     1.57512        157.62264      89.412152      182.35946      176.34483      192.19385      91.762027     -88.677205      93.519282     -176.1106       2570061.1    
    376000   299.4531       0.89260972     0.67748522     1.5700949      157.60138      89.464663      182.35225      199.65689     -98.613121      45.024368     -79.159749      73.394059      49.293187      2571122      
    377000   299.90644      0.89396103     0.68032604     1.5742871      157.59059      89.443806      182.33042      255.37017     -1.3879938     -109.19114      13.45549       223.4801      -186.39393      2570038.9    
    378000   299.35033      0.89230337     0.67815897     1.5704623      157.55183      89.454656      182.41115      10.662483      193.47114     -119.31585     -209.07355      212.5564      -35.100076      2570856.1    
    379000   300.31308      0.89517313     0.67667847     1.5718516      157.67566      89.475401      182.34324      156.3323      -65.97011      -31.0515       -0.79987119     85.311459      5.2938211      2572515.4    
    380000   300.02706      0.89432056     0.67684434     1.5711649      157.69666      89.468232      182.20346     -20.95872       284.92049      108.82089      64.905377      232.22647     -172.52807      2570679.6    
    381000   299.35471      0.89231644     0.67981605     1.5721325      157.72057      89.418498      182.3026      -327.19733     -6.3028421      299.89557     -212.36548      143.79086     -122.98499      2571038.5    
    382000   299.25965      0.89203309     0.68016407     1.5721972      157.65048      89.454296      182.42609      105.27699      76.480393     -21.205532     -124.7207       68.74489       11.709622      2572666.3    
    383000   300.89711      0.89691401     0.67842851     1.5753425      157.56437      89.461791      182.58775     -390.64033     -162.01026     -283.49057      47.517934      71.500892     -392.46546      2573755.3    
    384000   299.80897      0.89367049     0.67827322     1.5719437      157.61794      89.447742      182.38445      82.416227      154.68399     -2.4078189      80.352555     -4.2460359     -91.0685        2571359.7    
    385000   300.18641      0.89479557     0.6792538      1.5740494      157.64091      89.446137      182.38713     -305.81877      28.991705      6.6220403      65.841632      29.620756     -31.315888      2571726.1    
    386000   299.77142      0.89355856     0.67907499     1.5726335      157.64682      89.403454      182.45064      159.20347      198.61004     -131.55443      365.38764      99.019136     -69.360628      2571490.3    
    387000   300.4808       0.89567307     0.67645061     1.5721237      157.67675      89.453808      182.46869      130.4782       211.70301     -7.6223896      109.35526      100.04421     -175.14316      2573681.8    
    388000   300.89859      0.89691843     0.67646961     1.573388       157.65926      89.456116      182.31806      0.63518091    -3.6275087     -195.49458      55.850521      68.36016      -154.36198      2571338.2    
    389000   299.78961      0.89361277     0.67872186     1.5723346      157.62108      89.50616       182.47823      225.89328     -102.73612     -384.47062     -63.936504      291.02284     -245.10657      2574413.3    
    390000   300.55208      0.89588555     0.67956095     1.5754465      157.6486       89.439383      182.44245     -232.01572      14.282223     -13.886473      215.48204      169.22301     -212.90477      2572437.3    
    391000   299.40749      0.89247375     0.67880965     1.5712834      157.64611      89.437014      182.3089       97.434032     -17.657959     -24.959088      322.68285      124.9937      -100.65991      2570445.6    
    392000   300.67308      0.89624621     0.67406029     1.5703065      157.56103      89.446455      182.26808     -13.227616     -319.58294     -65.984119     -203.83237      110.92598     -80.630082      2568754.4    
    393000   299.67282      0.89326464     0.67916313     1.5724278      157.62208      89.429271      182.31202      263.0785      -150.58781      240.58958     -39.805056      104.96501     -75.345772      2569875.4    
    394000   300.06291      0.89442744     0.67880277     1.5732302      157.65017      89.380778      182.37826     -393.03592     -273.38551     -245.67452     -184.97303      118.97033     -29.596964      2569872.8    
    395000   300.09324      0.89451784     0.68182893     1.5763468      157.69185      89.460251      182.37206      148.87802      287.04191     -61.241666     -214.12387      170.85567     -190.99791      2572750.4    
    396000   300.30301      0.89514311     0.67793396     1.5730771      157.68612      89.434205      182.26384     -8.1252773      128.87814      168.83956     -119.18075      67.929309     -397.95414      2570381.8    
    397000   300.02623      0.8943181      0.68073621     1.5750543      157.66799      89.43751       182.35959     -134.48608      177.30542      227.25362      122.23192      79.788012     -176.78285      2571531.5    
    398000   300.02783      0.89432287     0.68072415     1.575047       157.70933      89.43076       182.4451      -538.63678     -112.10975      44.725111      68.178474      77.456084     -214.82021      2573217.6    
    399000   300.38912      0.89539981     0.67902352     1.5744233      157.66235      89.446905      182.32323      68.938859      180.53262      163.43022     -7.942047       176.33911     -261.90563      2571196.7    
    400000   299.82824      0.89372792     0.67710022     1.5708281      157.62735      89.42103       182.36019      287.3006      -219.94723      107.87708     -34.130819      231.85137     -31.61599       2570403.3    
    401000   300.56242      0.89591638     0.67981464     1.575731       157.6628       89.419733      182.45595     -134.74214      280.99486     -61.347001      239.25185     -18.671369     -139.46402      2572294.3    
    402000   300.28832      0.89509934     0.68045174     1.5755511      157.76383      89.428713      182.31938     -390.75612     -410.61548     -76.246707      210.37757      78.953929     -61.992944      2572274.1    
    403000   300.91434      0.89696537     0.67999327     1.5769586      157.66455      89.416274      182.474        340.57205      84.901953      119.25896      151.13601      192.58211     -229.92261      2572477.8    
    404000   299.8463       0.89378176     0.67765014     1.5714319      157.67305      89.405698      182.42313     -349.65163     -291.65459     -47.253985     -120.85818      124.13411     -94.379023      2571595      
    405000   300.07564      0.89446536     0.6784753      1.5729407      157.6469       89.444728      182.27903      285.86368      64.654996      9.1432414      116.9478      -31.588175     -28.692409      2570259      
    406000   299.80192      0.89364946     0.67700946     1.5706589      157.63571      89.430899      182.3646      -37.89072       101.34354      194.17819      175.64407      249.17468     -71.406166      2570885.4    
    407000   299.93642      0.89405038     0.68036723     1.5744176      157.65264      89.413858      182.44384      167.27862     -382.63734     -168.76476     -279.18585      203.91906     -68.925752      2571788.7    
    408000   299.80532      0.89365962     0.67699958     1.5706592      157.62101      89.404309      182.45287      173.96632     -166.30136      265.09485     -80.523976      234.40501     -26.00239       2571125.3    
    409000   300.09289      0.89451679     0.67932364     1.5738404      157.64766      89.433693      182.41628      363.10688     -65.595969     -39.05225      -74.467268      107.16716     -91.64702       2571889.3    
    410000   300.10604      0.894556       0.67741862     1.5719746      157.59014      89.47861       182.39848      29.25163      -364.72677      140.92939      169.92196      86.557562     -229.46255      2571991.3    
    411000   299.79626      0.89363259     0.68061093     1.5742435      157.6131       89.458313      182.3621       63.374386     -102.21896      34.679944      49.873269      46.9602       -103.65541      2571269.5    
    412000   299.97253      0.89415802     0.67860412     1.5727621      157.78642      89.432991      182.45062      33.281606     -217.03136      62.759975     -239.84556      28.906221     -29.06907       2574617.4    
    413000   300.24687      0.89497578     0.67900502     1.5739808      157.72886      89.438204      182.41092      63.721107      109.63198     -114.17389      52.148467      68.168115     -100.64068      2573268.2    
    414000   299.71936      0.89340337     0.6794371      1.5728405      157.74641      89.431742      182.42328      21.349609     -164.74472      67.164459      100.04497      60.057278     -94.573178      2573543.1    
    415000   300.39878      0.8954286      0.67767509     1.5731037      157.75744      89.447241      182.41431      94.797857      12.60397      -185.83861     -151.3492      -132.20953     -3.5230096      2574042.4    
    416000   300.05017      0.89438944     0.67899246     1.5733819      157.65231      89.477322      182.39758     -155.8584       199.44611     -179.61654     -3.1247371     -123.26424     -94.756979      2572956.2    
    417000   300.06641      0.89443787     0.68295131     1.5773892      157.64115      89.434995      182.37436      30.507666     -537.84558      71.846271      55.690435     -84.228909     -134.92406      2571229.7    
    418000   300.30034      0.89513515     0.67875351     1.5738887      157.65603      89.43688       182.3245       101.90576      32.611363     -94.761382     -20.990449      61.136309     -175.07919      2570823.4    
    419000   300.19763      0.89482901     0.68078602     1.575615       157.7323       89.423069      182.24261      473.24784     -3.9083945      43.21222       112.58515      99.773552     -230.67346      2570515      
    420000   300.1826       0.89478422     0.68069283     1.575477       157.67214      89.458366      182.44115      246.71929     -282.52742      5.3729092      287.31726      92.627262     -146.81163      2573349.2    
    421000   299.29048      0.89212497     0.68189541     1.5740204      157.74505      89.412969      182.37432     -276.2499      -390.675       -107.83099      100.6387       79.992376     -73.484228      2572290.1    
    422000   300.35436      0.8952962      0.67809287     1.5733891      157.69577      89.452088      182.2776       318.1287       10.041639      203.42575     -45.97589      -44.322949     -216.40804      2571247.2    
    423000   299.59337      0.89302782     0.67995654     1.5729844      157.65951      89.432809      182.36626     -98.596674      279.34474      127.16856     -131.81297     -11.198737     -233.66198      2571351.9    
    424000   299.73608      0.89345321     0.67910327     1.5725565      157.68927      89.391079      182.2655       251.5236       219.77455      208.85831     -256.57301     -91.50195      -55.929915      2569217      
    425000   300.80962      0.89665322     0.67964164     1.5762949      157.60754      89.453162      182.23962     -129.05843      48.009834      94.823067     -2.8823881      25.819364     -205.3251       2569304      
    426000   299.36763      0.89235494     0.67865036     1.5710053      157.67534      89.483767      182.22868     -30.523722     -398.68382     -163.57732      93.016817      99.876909     -141.62498      2571134.4    
    427000   299.57197      0.89296403     0.67937191     1.5723359      157.58074      89.493796      182.38362      267.49436     -446.43276     -373.80445      48.973849      191.17994      6.9432636      2572064.7    
    428000   299.75876      0.89352082     0.67946011     1.5729809      157.59087      89.458146      182.24257      388.86381     -68.504637     -387.98523     -115.75992      56.830295     -180.27994      2569216.9    
    429000   300.17702      0.89476757     0.67891885     1.5736864      157.61372      89.456337      182.30677      173.94234      232.80091      23.967408      145.58986      92.478392      31.858388      2570442.7    
    430000   300.21645      0.89488511     0.68100441     1.5758895      157.67627      89.485959      182.22998      70.83099      -82.91526       239.24858     -55.769849      86.058562     -11.032684      2571230.8    
    431000   300.72662      0.89640581     0.67989616     1.576302       157.6755       89.45461       182.20591     -137.09719     -44.347315      149.45648      107.4974       171.54914     -222.24755      2569978      
    432000   300.07947      0.89447681     0.68276955     1.5772464      157.58246      89.434756      182.31448      268.40733      160.16957     -15.414112     -123.39736     -11.89477       131.43698      2569421.5    
    433000   300.02864      0.89432529     0.67965278     1.5739781      157.64352      89.46061       182.41876     -270.39446     -211.92975      38.629429      81.504705      108.37845     -74.631015      2572630.8    
    434000   300.03759      0.89435196     0.68051123     1.5748632      157.67482      89.426529      182.26691     -127.88747     -127.76838     -11.088695     -60.051806      160.32635     -143.65768      2570020.3    
    435000   298.94223      0.89108691     0.67901371     1.5701006      157.63971      89.460492      182.15896      133.71732     -49.712517      131.10522     -25.385552      106.25179     -201.96361      2568901.4    
    436000   300.0511       0.89439224     0.67663959     1.5710318      157.55385      89.492357      182.3832       125.58192      120.68803      82.290015      202.30992      81.645983     -137.76244      2571578.6    
    437000   300.43701      0.89554256     0.67918544     1.574728       157.56049      89.445815      182.39805      588.81541      176.36307      189.25441      152.9376       66.011766      151.88758      2570558.7    
    438000   300.14527      0.89467292     0.67840487     1.5730778      157.58734      89.500816      182.28984      36.578476     -15.3267       -21.390147     -10.616397     -113.1511       66.976807      2571051.6    
    439000   300.53722      0.89584125     0.67867478     1.574516       157.62107      89.49322       182.23801     -111.67579     -149.79366     -2.0791476     -187.45393     -15.796759     -9.2334218      2570652.5    
    440000   301.3418       0.89823956     0.67801763     1.5762572      157.60495      89.443804      182.23915     -238.95311      230.40086      83.240391      109.9275       140.24304     -91.443735      2568986.4    
    441000   300.71131      0.89636018     0.67638651     1.5727467      157.64931      89.450051      182.31446     -321.26258      234.82127     -118.2899      -22.953695      113.68934     -186.10867      2570950.9    
    442000   299.5767       0.89297814     0.67658645     1.5695646      157.48758      89.415921      182.2615       167.4466       111.77701     -215.63845      60.039404     -25.568898     -250.22831      2566587.6    
    443000   299.91615      0.89398997     0.67829077     1.5722807      157.68171      89.440557      182.17135     -162.09513     -86.721124     -30.955799      124.26391      8.5051218     -167.65369      2569188.1    
    444000   299.75281      0.89350307     0.67761104     1.5711141      157.58408      89.462784      182.26098     -235.35583     -168.71585     -222.54051      104.07468      37.955821     -56.265865      2569499      
    445000   300.58396      0.89598059     0.67888981     1.5748704      157.65551      89.451974      182.39059      220.99794      147.05025     -70.817398      15.224566      32.529256     -66.162715      2572180.9    
    446000   299.09956      0.89155587     0.67709283     1.5686487      157.56928      89.431354      182.22393      458.56667      40.468332      31.061057     -44.777294     -40.466253     -200.98115      2567832.9    
    447000   300.2428       0.89496365     0.67811102     1.5730747      157.55474      89.418353      182.28775      150.64467      421.0556      -19.86051      -108.96974      280.2908      -91.034639      2568121.8    
    448000   300.84856      0.89676929     0.67660771     1.573377       157.60384      89.489277      182.2526      -448.40368      1.4560314     -4.3605451      280.8763       228.97332      33.269101      2570464      
    449000   300.29935      0.89513221     0.67678012     1.5719123      157.55873      89.47356       182.14676     -385.25263     -431.48657     -57.311861      19.146668      82.562754     -4.1936655      2567785      
    450000   300.51493      0.89577482     0.67877432     1.5745491      157.66813      89.424975      182.23239      149.99704      508.3163      -51.456709      129.55275      226.2865      -195.52478      2569379.9    
    451000   299.77488      0.89356887     0.67871524     1.5722841      157.55982      89.421229      182.33403     -173.01932      418.09439     -70.066916      61.051224      184.71741     -93.493422      2568939.3    
    452000   299.93956      0.89405975     0.67834377     1.5724035      157.63366      89.425624      182.32033     -309.60462      111.87693     -150.28893     -107.92601      77.260177     -354.28733      2570076.3    
    453000   300.25821      0.89500959     0.67950881     1.5745184      157.64212      89.445473      182.23107      495.84268      76.073466      127.93259     -119.72179      283.39665     -97.847838      2569526.3    
    454000   299.6834       0.89329618     0.67853992     1.5718361      157.72238      89.474921      182.30455      9.6139989     -138.58474     -38.974467     -41.692335      66.150979     -245.09416      2572717.7    
    455000   300.08833      0.89450322     0.6795212      1.5740244      157.66161      89.467565      182.43264     -19.898779     -19.099735      91.480863      176.23115      85.742794     -97.428432      2573322      
    456000   299.91593      0.89398931     0.67843715     1.5724265      157.66973      89.478769      182.28694      106.28556     -235.45242     -173.12431      12.933983      56.857104     -172.68992      2571721.1    
    457000   299.45591      0.8926181      0.67879762     1.5714157      157.62222      89.497162      182.23131     -299.24118     -148.09234      1.2616025      56.828669     -66.763008     -73.762754      2570689.9    
    458000   300.65675      0.89619756     0.67702055     1.5732181      157.55479      89.472602      182.35714      234.63063     -187.27585      51.779602      24.518376      185.63136     -93.138109      2570658.8    
    459000   299.67419      0.89326873     0.67923676     1.5725055      157.62372      89.426529      182.26033     -343.39678      163.54818     -336.40733     -12.341371      59.296964     -257.79201      2569094.5    
    460000   299.60756      0.89307013     0.67920579     1.5722759      157.59873      89.480633      182.24876      300.15821     -32.657345      248.9909      -129.3002       85.268915     -236.34628      2570078.2    
    461000   300.86056      0.89680505     0.67968735     1.5764924      157.72654      89.423098      182.18913     -45.641373      116.63637      241.81802     -157.23198     -52.378334     -119.61327      2569667.6    
    462000   299.6113       0.89308126     0.68312885     1.5762101      157.70285      89.447969      182.20811     -109.94777     -12.083438      171.51905      30.489005      12.460416     -127.36305      2570264      
    463000   299.94241      0.89406823     0.67877086     1.5728391      157.63539      89.446705      182.28076      137.59317     -162.19004      174.72146     -121.89049     -56.856191     -103.33103      2570152.5    
    464000   300.45214      0.89558766     0.67672283     1.5723105      157.68009      89.468808      182.20591     -146.33455     -61.791753      55.721368      68.094056      27.701087     -103.94545      2570460.8    
    465000   299.55944      0.89292668     0.67980756     1.5727342      157.5793       89.464371      182.39612     -172.01688     -268.14441      0.4647067     -66.676301      227.86466      12.433691      2571371.8    
    466000   300.04697      0.89437991     0.67995635     1.5743363      157.62586      89.471245      182.35124      61.268528     -0.2307744     -144.97713      54.368838     -3.5437983     -226.64262      2571696.2    
    467000   299.95663      0.89411063     0.67947002     1.5735807      157.77851      89.440646      182.29334     -289.92141     -65.202332     -95.674367     -74.042742      241.61805     -154.45829      2572489.3    
    468000   299.91408      0.89398381     0.67877515     1.572759       157.69335      89.431762      182.32325     -42.416243      79.205255      84.374787     -8.5899084     -85.185663     -215.78706      2571267.3    
    469000   300.45165      0.89558618     0.68003121     1.5756174      157.62293      89.446529      182.45289     -86.860869     -38.383137      117.16309     -140.86272      94.235059     -96.124765      2572371.3    
    470000   299.96402      0.89413266     0.67627863     1.5704113      157.55475      89.418668      182.28358     -23.83679      -289.6195      -204.25019     -97.317958      158.22667     -1.1518517      2568072.3    
    471000   299.97661      0.8941702      0.68056755     1.5747377      157.58752      89.485755      182.35406     -48.396316     -154.21028     -424.73826     -3.5080574      171.5556      -76.45985       2571527.4    
    472000   300.50993      0.8957599      0.67878627     1.5745462      157.56498      89.497549      182.17514     -145.0516      -133.82967     -50.280503     -13.588648     -9.5167413     -199.62893      2568975.5    
    473000   299.99449      0.89422347     0.67782582     1.5720493      157.5574       89.515724      182.21042      134.77579      231.58454      12.839207     -73.89129       160.88797     -202.24026      2569871.2    
    474000   300.33515      0.89523892     0.67763021     1.5728691      157.65472      89.503882      182.31153      41.193334     -443.15062     -352.56168     -217.17292      57.729709     -241.10524      2572545.1    
    475000   300.05347      0.89439928     0.67665209     1.5710514      157.69715      89.466115      182.34754     -158.65644     -254.55936      162.79115      108.9815       100.45865     -166.40668      2572659.6    
    476000   299.76321      0.8935341      0.67835319     1.5718873      157.58447      89.475853      182.17071      306.64451      50.836491      18.215936      33.235601      9.7354241     -107.7059       2568607.9    
    477000   299.65114      0.89320004     0.67916403     1.5723641      157.6046       89.45603       182.18771     -209.91455     -280.30061     -295.85398      175.537        134.64831     -56.481525      2568606.6    
    478000   300.31359      0.89517467     0.67820235     1.573377       157.61164      89.519943      182.29405      235.41719      30.974209     -51.045172     -19.390482      16.788065     -163.81954      2572056.9    
    479000   299.3697       0.89236111     0.67754471     1.5699058      157.74071      89.455062      182.23338     -203.85761     -278.54848     -100.34992      50.412187      76.351706      27.462476      2571441.5    
    480000   300.81904      0.89668132     0.67870932     1.5753906      157.54822      89.473956      182.26681     -219.8301      -435.39367     -2.1005805      98.589288      117.41985     -59.426276      2569317.3    
    481000   300.07964      0.8944773      0.67863436     1.5731117      157.51935      89.4656        182.33068      548.36937      396.27166     -50.150869     -141.48276      65.398525      29.221685      2569506.7    
    482000   299.66961      0.89325509     0.67898236     1.5722374      157.4744       89.489239      182.30839      401.9576      -9.8192078      91.013484     -302.67603      288.33174     -154.77596      2569138      
    483000   299.75939      0.89352271     0.67925429     1.572777       157.56243      89.469996      182.12432     -95.489042      18.341011     -7.0205795     -74.808938      180.26216      26.214749      2567426.5    
    484000   300.15302      0.89469602     0.67930185     1.5739979      157.6393       89.475326      182.21582     -81.462843     -239.90946     -172.80739     -78.779615      134.34372     -94.910112      2570122.7    
    485000   299.94569      0.89407802     0.67809368     1.5721717      157.57165      89.505771      182.07085      55.187907      388.42219      89.446956      6.2064509      170.41005     -45.101148      2567849.4    
    486000   300.55066      0.8958813      0.67898794     1.5748692      157.65103      89.47881       182.26624     -332.39318     -17.944559     -133.61384      138.89052     -88.634173      30.96281       2571125.3    
    487000   299.87011      0.89385274     0.67603274     1.5698855      157.59123      89.469786      182.24675     -85.320107     -112.87066     -173.14497     -53.642644      168.27356     -16.930136      2569616      
    488000   300.49462      0.89571427     0.67714943     1.5728637      157.59471      89.464713      182.23123     -421.22864     -327.96184     -236.64027     -18.038653      48.935953     -201.07196      2569308.4    
    489000   299.59197      0.89302365     0.67936707     1.5723907      157.53994      89.445785      182.29477      159.36542      16.427359     -95.215031     -207.86146      71.271198     -95.449277      2568767.4    
    490000   300.55254      0.89588691     0.67836921     1.5742561      157.54531      89.458844      182.28295     -98.474193     -119.57448     -186.98229      53.497519     -30.896197      68.301032      2569063.4    
    491000   300.14206      0.89466336     0.6774885      1.5721519      157.48213      89.48155       182.2011       39.313434     -48.084309     -164.2569       47.945694      126.31895     -56.478259      2567531.5    
    492000   299.58906      0.89301497     0.67833859     1.5713536      157.52315      89.517879      182.1401       268.2345      -30.529314     -165.6717       69.359207      86.721616     -48.329094      2568382.8    
    493000   299.6224       0.89311437     0.67649163     1.569606       157.56548      89.484372      182.13775     -107.568       -131.63079      234.20551      202.46586      21.734316      18.182641      2568078.2    
    494000   299.92699      0.89402228     0.67863121     1.5726535      157.59925      89.481376      182.30695      419.89854      413.53193      1.712586      -116.86683      13.962188     -231.96877      2570928.6    
    495000   300.71729      0.896378       0.67724051     1.5736185      157.60329      89.446645      182.32588     -156.83464      35.926578     -36.210477      32.325774     -19.309228     -106.4835       2570263.5    
    496000   300.00518      0.89425536     0.67685407     1.5711094      157.60519      89.466751      182.2075       338.7934      -108.44635      176.5002      -3.8190125      21.881195     -14.229104      2569203      
    497000   300.04796      0.89438287     0.67679352     1.5711764      157.59254      89.509703      182.24218     -3.4532368     -28.712171      122.62599     -119.36201     -27.889631     -137.09466      2570719.4    
    498000   300.64879      0.89617381     0.67732696     1.5735008      157.53738      89.470059      182.28254      122.8951       164.7837       65.61336       96.59747       163.05337     -125.73439      2569250.3    
    499000   300.27051      0.89504623     0.67661782     1.571664       157.57974      89.473179      182.23919     -213.6937       75.244617      194.19458     -38.398186     -89.783575     -140.76508      2569419.6    
    500000   300.46675      0.89563119     0.67798215     1.5736133      157.53789      89.463336      182.21202      108.24385     -207.94522      9.3187752      123.96969      34.831697      13.839407      2568071.6    
    501000   299.80691      0.89366434     0.67948978     1.5731541      157.60024      89.477988      182.17213     -309.61284     -103.24893      314.46358     -36.256308     -38.608994     -24.203585      2568946.3    
    502000   300.42641      0.89551096     0.67730547     1.5728164      157.57716      89.434719      182.28654     -120.93384      118.41688      40.184753     -2.015876       26.393598     -106.17753      2568940.3    
    503000   299.61574      0.89309451     0.67776468     1.5708592      157.6794       89.508973      182.35194     -53.447127      346.80543      48.677203      101.67792      184.67628     -21.352033      2573664.4    
    504000   299.62643      0.89312638     0.67848768     1.5716141      157.62244      89.448427      182.27066      7.0134283      388.83742      11.853478     -196.8269       76.847648     -79.974696      2569848.5    
    505000   300.08242      0.8944856      0.67891365     1.5733992      157.59301      89.512773      182.1935       233.81511     -253.91844     -42.920598     -103.73438      65.243711     -75.133469      2570128.5    
    506000   300.1865       0.89479583     0.67709156     1.5718874      157.501        89.472996      182.27797      85.584106      208.81179      18.943663     -74.541019      24.195562     -193.181        2568676.9    
    507000   300.58558      0.89598541     0.67974794     1.5757334      157.52622      89.484583      182.27976     -51.272609     -228.51824     -55.29808      -64.543857     -154.88835     -193.77047      2569446.1    
    508000   299.74609      0.89348306     0.67965965     1.5731427      157.54641      89.453463      182.28297      166.90668      90.816475      59.504874     -34.574722      28.510376     -31.931833      2568927.1    
    509000   300.43831      0.89554643     0.67773002     1.5732764      157.61373      89.475609      182.25511     -299.84784     -83.558029     -91.094681      11.626037     -54.754087      55.834083      2570268      
    510000   300.08803      0.89450231     0.67590465     1.570407       157.61811      89.443141      182.30987      12.62502       110.92552     -83.198581      15.980737      159.42673      6.1333539      2570178.8    
    511000   299.51671      0.89279931     0.6769855      1.5697848      157.613        89.510535      182.18565     -90.000972     -582.47384      51.864514     -72.11447       165.19977     -73.937139      2570279.6    
    512000   299.76774      0.89354758     0.67832641     1.571874       157.59645      89.473408      182.10517      81.898914     -35.129045     -73.717759      49.20236       232.95496     -148.10113      2567808.7    
    513000   300.20928      0.89486373     0.67814263     1.5730064      157.5824       89.468188      182.28954      120.47223      8.9631166     -53.675541      31.92964       154.42519     -4.4482224      2570029.6    
    514000   299.90891      0.89396839     0.67636918     1.5703376      157.62507      89.485384      182.23197     -50.709863     -156.92014      178.91421      146.83152      22.735907     -64.549157      2570407.3    
    515000   300.30403      0.89514617     0.67764515     1.5727913      157.63811      89.414784      182.40034     -52.184373      719.63358     -239.46033     -114.38563      231.23718     -139.00831      2570965.1    
    516000   298.69287      0.89034363     0.6814269      1.5717705      157.63416      89.454368      182.37439     -160.20866      155.11401      75.265409      168.35592      123.2945      -63.461724      2571673      
    517000   300.12573      0.89461468     0.68009476     1.5747094      157.58443      89.459291      182.20224      46.732128      110.77312     -134.27443      8.6947489      242.84934     -88.30138       2568576.3    
    518000   299.8128       0.89368191     0.67861603     1.5722979      157.51951      89.447198      182.2647       498.98857     -32.293154     -60.89325       225.82469      89.872945     -204.56947      2568051.1    
    519000   300.12734      0.89461949     0.67781995     1.5724394      157.54781      89.507863      182.1471       251.91464     -186.85887      85.720767      236.27465      46.994223      26.244094      2568596.1    
    520000   299.50845      0.89277471     0.67823703     1.5710117      157.52558      89.502609      182.30012     -415.2628      -259.38927     -75.369387     -103.05527      171.53829     -82.019329      2570240.4    
    521000   300.55248      0.89588674     0.67696186     1.5728486      157.61249      89.498566      182.33218     -271.49014      524.09796     -341.58441      109.51176      111.95049     -72.973471      2571994.4    
    522000   299.32727      0.89223465     0.67807698     1.5703116      157.58445      89.483297      182.15453     -219.2756      -3.8106212      189.57008     -120.64364      347.03769     -65.401918      2568593      
    523000   299.68542      0.89330221     0.67839106     1.5716933      157.57448      89.47232       182.18358      273.61177     -156.11372      102.48983      230.27997      254.40313     -100.60355      2568525.1    
    524000   300.13329      0.89463722     0.6800354      1.5746726      157.61255      89.459772      182.30542      50.810488      167.74542     -119.89488      74.405463      58.861387      20.242586      2570503.2    
    525000   299.74262      0.8934727      0.67676251     1.5702352      157.68801      89.472267      182.16744     -303.72032     -330.96539      207.34139      37.196007      212.34131     -1.7795168      2570146.5    
    526000   299.96956      0.89414916     0.67737875     1.5715279      157.6225       89.462959      182.25379     -439.51873     -280.62938      22.485897      41.10528       124.63901     -26.498355      2570029      
    527000   300.54043      0.89585082     0.67779868     1.5736495      157.68723      89.443954      182.17029     -165.84853      481.00161     -313.24504     -47.20653       11.000813     -306.42227      2569360.6    
    528000   301.16878      0.8977238      0.6780092      1.575733       157.70754      89.4689        182.12345     -289.16406      147.10277     -39.389439      227.29973      215.92319     -147.87824      2569747.3    
    529000   300.28663      0.89509431     0.68016242     1.5752567      157.63116      89.503306      182.27988     -133.81527      301.60548      229.7862       425.52878      136.91573     -182.82787      2571697.5    
    530000   300.07651      0.89446798     0.6803739      1.5748419      157.49623      89.488266      182.24739     -59.100342      87.520457      165.72583     -45.755042     -82.397971      1.9801565      2568606.4    
    531000   300.98004      0.89716121     0.67917142     1.5763326      157.61973      89.453305      182.28869      139.46399      371.72204     -47.904286      189.75698      185.93582     -80.256919      2570198.7    
    532000   300.43795      0.89554535     0.68018274     1.5757281      157.55336      89.509291      182.33055      208.3715      -262.751       -154.78398      163.57271      120.16068     -21.329052      2571314.6    
    533000   300.03827      0.89435399     0.67764379     1.5719978      157.57175      89.490437      182.17658     -138.97535     -185.1745      -76.231966      14.592288      91.509621     -134.47403      2568902      
    534000   299.4971       0.89274088     0.67808033     1.5708212      157.61614      89.51096       182.20582      361.62362      331.11197      149.83603      189.03816      121.68106     -65.790206      2570627.4    
    535000   300.03699      0.89435016     0.67758373     1.5719339      157.59626      89.425788      182.18829     -219.62094      79.620362      40.123048     -213.23545      145.31633      51.531117      2567610.4    
    536000   300.67355      0.89624764     0.67746895     1.5737166      157.61704      89.436357      182.30053      71.286528     -280.20641     -90.234683     -116.96319     -32.245001     -93.838928      2569834.8    
    537000   299.32022      0.89221362     0.67945842     1.571672       157.60195      89.449711      182.14623     -246.10547     -175.57454      35.946613     -7.7715361      76.05273      -74.787499      2567797.2    
    538000   300.19753      0.89482872     0.67835604     1.5731848      157.61294      89.501726      182.2414      -224.40516     -277.18596     -145.67211      212.61662      64.583107     -89.739214      2570812      
    539000   299.6686       0.89325206     0.67625201     1.5695041      157.56589      89.47468       182.32104     -252.31289     -354.32002     -169.25609      88.927797      115.94537     -8.313022       2570390.8    
    540000   300.4278       0.89551511     0.67671516     1.5722303      157.46389      89.510346      182.17677      118.83294      368.74125      36.356851     -62.62525       150.77984     -77.519049      2567717.4    
    541000   299.02792      0.89134234     0.67629035     1.5676327      157.64848      89.461013      182.17235      44.63956       86.578758      17.603938     -224.0212       69.510294      166.19143      2569248.2    
    542000   299.81489      0.89368813     0.67951145     1.5731996      157.61706      89.454954      182.15        -197.82285      58.466377      25.030422     -103.98569     -24.501069     -151.76047      2568247      
    543000   299.73281      0.89344346     0.67582528     1.5692687      157.53141      89.507837      182.09518      110.51503      124.94082      208.34295     -266.63607      131.56999     -251.70558      2567595.9    
    544000   299.9366       0.89405093     0.67819624     1.5722472      157.58948      89.500266      182.07103     -274.8752      -181.30075      127.0122       4.843192       4.6793508     -179.30227      2567984.5    
    545000   300.40812      0.89545643     0.67822238     1.5736788      157.545        89.468871      182.20995      132.25505      219.69131     -178.66186     -58.031202      195.62579     -21.768157      2568317.3    
    546000   300.22586      0.89491314     0.67968286     1.574596       157.47821      89.466905      182.28196      105.33746     -11.244103     -64.18703      -69.629593      166.15213     -36.894765      2568186.6    
    547000   299.51548      0.89279565     0.6774416      1.5702372      157.52387      89.447765      182.18224      171.81943      295.52106      154.173       -78.12678       179.10834     -147.93731      2566976.6    
    548000   299.73029      0.89343597     0.67949058     1.5729266      157.64224      89.508908      182.22629      4.7541824     -14.995434      190.0709       170.38189      89.503815     -250.15137      2571283.1    
    549000   299.22382      0.89192627     0.68143772     1.573364       157.59089      89.492106      182.33373     -120.11174     -33.902645     -164.24811      139.07741      153.28689     -54.89624       2571478.3    
    550000   300.11136      0.89457186     0.67727015     1.571842       157.60553      89.462174      182.24691     -36.491655     -59.600137     -101.88794      210.60577      257.8377       39.579025      2569632.7    
    551000   300.00446      0.89425321     0.67718994     1.5714431      157.60066      89.436898      182.15202      153.89344     -316.96839      162.35926     -140.29565     -51.528322      14.490991      2567490      
    552000   299.54369      0.89287975     0.67740284     1.5702826      157.61604      89.473027      182.22001     -72.905905     -122.73078     -40.00119      -220.16077      113.34583     -92.098872      2569736.6    
    553000   299.86521      0.89383812     0.67812567     1.5719638      157.6214       89.476242      182.305       -336.66227      179.81176     -202.61342      214.65106     -39.213198     -51.10819       2571115      
    554000   299.97538      0.89416651     0.6764941      1.5706606      157.60723      89.476202      182.27721      535.76267      75.29042      -17.545205     -55.58407       14.646833     -183.12525      2570490.9    
    555000   300.72223      0.89639274     0.6761054      1.5724981      157.59069      89.450185      182.11131     -265.40395      201.86487     -116.1411      -18.809071      271.20021     -48.069182      2567135      
    556000   299.79634      0.89363283     0.67960187     1.5732347      157.57623      89.486862      181.99988     -288.77216     -159.12247     -192.9751       356.06006      77.230818     -72.829157      2566380.7    
    557000   299.88207      0.89388839     0.67746122     1.5713496      157.53877      89.470741      182.26415     -259.95909      346.84282     -34.715585     -28.330742      55.385292     -121.49713      2569033.2    
    558000   299.72973      0.89343429     0.67538566     1.5688199      157.49356      89.46642       182.16157      330.86867      442.7085       73.743521      205.28846      175.67374     -233.40372      2566726.7    
    559000   299.80405      0.89365582     0.67613362     1.5697894      157.52336      89.456751      182.04942      126.17129      357.17329      349.97751     -157.49028      203.09875      90.708453      2565354.6    
    560000   300.17576      0.8947638      0.6781837      1.5729475      157.50618      89.552323      182.28982     -331.29865     -176.3862      -93.971728     -147.08803      43.39165      -80.964667      2571205.9    
    561000   299.3057       0.89217033     0.67559534     1.5677657      157.58943      89.462594      182.26175     -8.7048393      47.659957     -34.021607     -51.045632      223.87141     -99.821144      2569591.7    
    562000   300.41383      0.89547346     0.67612657     1.5716         157.53341      89.486757      182.18274     -57.519738     -188.1969      -206.23511     -162.78059      248.46294      0.91483844     2568258.1    
    563000   301.4556       0.89857877     0.67877701     1.5773558      157.56838      89.514554      182.18754     -133.58298     -447.588        20.804203      206.25194      45.204735     -87.938652      2569693.9    
    564000   300.72372      0.89639716     0.67781313     1.5742103      157.54533      89.521691      182.18274     -96.038672     -245.83694     -0.0061672737   288.17508      37.255985     -37.705786      2569455.2    
    565000   300.08633      0.89449726     0.67666392     1.5711612      157.49694      89.515429      182.2269       138.12368     -97.761131     -169.10659      125.21808     -37.583993     -285.08261      2569108.9    
    566000   300.42432      0.89550473     0.67729495     1.5727997      157.56633      89.432601      182.15717      7.8973013      343.28164     -28.407573     -139.55256      67.088055      64.005212      2566879.8    
    567000   299.13962      0.89167529     0.67643824     1.5681135      157.50646      89.480762      182.23877      394.279       -25.479954     -70.723393      215.88008      162.86055     -42.770788      2568436.3    
    568000   300.76048      0.89650676     0.67783469     1.5743415      157.5924       89.513221      182.23195      174.3772      -32.594053     -59.627116      54.541964      42.924455     -87.178648      2570673.9    
    569000   299.85184      0.89379829     0.67525029     1.5690486      157.47593      89.483292      182.14485      598.6658       138.1994      -74.67734       94.066514      152.76005     -149.86091      2566687.7    
    570000   300.7616       0.89651007     0.67770898     1.5742191      157.63263      89.459563      182.22188     -253.8028      -440.92181     -4.6855185      0.084462232    161.10899     -21.88899       2569646.8    
    571000   299.69851      0.89334122     0.67823518     1.5715764      157.60314      89.4818        182.20627      314.61171      67.746334      104.79204      154.21715      20.378979     -120.10695      2569584.4    
    572000   300.20034      0.89483709     0.67860898     1.5734461      157.63124      89.516377      182.26357     -221.94686     -211.01274     -0.97116839     125.40966     -144.3223      -32.026441      2571844.2    
    573000   299.9669       0.89414123     0.68019977     1.574341       157.5031       89.548433      182.18558      97.764867     -1.3263034      391.54343     -49.284707     -31.051417     -71.493673      2569573.9    
    574000   299.7041       0.89335789     0.67553208     1.56889        157.44935      89.501131      182.17288      290.52163      523.28366      223.38726      58.880164     -58.145759     -28.636239      2567161.1    
    575000   300.6822       0.89627341     0.67621018     1.5724836      157.62244      89.464407      182.13139      148.22755      173.59845      115.9314      -110.19285      116.46474     -150.2633       2568343.6    
    576000   299.87098      0.89385533     0.6782026      1.5720579      157.5629       89.466874      182.18431      280.22461      84.173733     -78.511347      147.57659     -14.874313     -111.24992      2568190.2    
    577000   300.12502      0.89461257     0.6792945      1.5739071      157.48615      89.498667      182.17638      332.9108      -263.99546      57.847012      195.586        205.82439     -249.16342      2567739.9    
    578000   299.32314      0.89222231     0.67768699     1.5699093      157.50938      89.501611      182.15109     -298.1208       144.26821     -44.952383      5.2974833      205.25597     -180.56791      2567846.4    
    579000   299.45773      0.8926235      0.67795365     1.5705771      157.55293      89.484339      182.26325     -71.952323     -60.288598      54.083706      127.7573       83.867079     -198.79587      2569642      
    580000   299.46596      0.89264803     0.67654775     1.5691958      157.61424      89.417573      182.19493     -260.95832      110.56177     -450.29382     -99.155088     -76.425665     -233.05757      2567761.2    
    581000   299.46238      0.89263736     0.67725189     1.5698892      157.56232      89.487435      182.08526      92.951945      574.41064     -131.59447     -45.784488      181.22369     -27.352242      2567374.5    
    582000   300.09774      0.89453125     0.67834567     1.5728769      157.4663       89.508666      182.19462      81.353909     -156.02245      15.705466      140.74274      142.92534      48.893236      2567959.9    
    583000   299.43061      0.89254268     0.6775648      1.5701075      157.53828      89.470685      182.24926      561.73969     -14.020445     -79.465264      115.96002      239.32121     -46.941645      2568813.9    
    584000   299.96036      0.89412174     0.67837064     1.5724924      157.5155       89.492201      182.20719      287.92597      52.519405     -217.5536       21.736306      338.64312      101.06285      2568467.1    
    585000   299.93963      0.89405995     0.67610516     1.5701651      157.49549      89.466588      182.01308      414.34287     -202.31285      298.64252      39.08199       30.618375     -50.445004      2564670.6    
    586000   299.41077      0.89248354     0.67837783     1.5708614      157.53114      89.490525      182.07847      102.10732     -67.629713      37.393381     -136.0992      -86.114852     -37.538845      2566859.3    
    587000   299.50889      0.89277601     0.67658029     1.5693563      157.49392      89.473948      182.29383      35.9605        165.77416     -332.56584     -89.479936      85.835829     -148.53911      2568812.3    
    588000   299.7598       0.89352391     0.67795967     1.5714836      157.53003      89.490572      182.26581     -226.75583     -431.56816      82.103554      184.32673      130.05059     -15.176686      2569483.7    
    589000   300.81013      0.89665474     0.67570028     1.572355       157.48191      89.508         182.19262      210.384       -109.08354      59.050686     -361.91381     -157.68445     -210.06571      2568167.2    
    590000   300.11749      0.89459012     0.67621259     1.5708027      157.544        89.472532      182.05689      348.37934     -315.74694      133.8952       226.37216      109.95138     -86.930242      2566248.5    
    591000   300.2953       0.89512015     0.67568944     1.5708096      157.52902      89.503311      182.15167      197.13277      225.44149     -277.41369      145.2056      -14.060715      8.4976377      2568223.7    
    592000   300.4609       0.89561377     0.67585805     1.5714718      157.44035      89.479467      182.24711      245.5921      -76.066276     -105.57119      221.72993     -25.024424     -133.75394      2567438.7    
    593000   300.27219      0.89505126     0.67481362     1.5698649      157.55559      89.469548      182.19852      166.26099      197.55915     -26.681861      64.56269       9.6570097     -147.38706      2568348.3    
    594000   300.08882      0.89450468     0.67843463     1.5729393      157.46376      89.46636       182.033        126.54718      92.492655     -137.31657     -98.275824      156.08871     -111.92199      2564428      
    595000   300.55131      0.89588327     0.67860582     1.5744891      157.46502      89.49535       182.19843      121.20885      29.423321     -166.81205      22.900563      73.860377     -61.213579      2567610.7    
    596000   299.92402      0.89401342     0.67634352     1.5703569      157.50306      89.491478      182.21373      346.20115     -534.98195     -36.391205     -85.292547     -18.699365     -31.724547      2568335.7    
    597000   300.18612      0.89479469     0.68075594     1.5755506      157.54253      89.487962      182.1564      -142.39359     -332.07882      84.058713     -403.11705     -54.093639     -59.489801      2568070      
    598000   300.77514      0.89655044     0.67768401     1.5742345      157.61335      89.468016      182.16266      362.9096      -178.38395     -90.743791     -111.78344     -56.210047     -109.86089      2568740.1    
    599000   300.04277      0.89436741     0.67867197     1.5730394      157.58465      89.46438       182.19805      293.54105     -36.250245      225.31512     -125.55491      12.417017     -72.003478      2568666.9    
    600000   299.74832      0.89348971     0.67705374     1.5705435      157.55854      89.495343      182.27171      49.039758     -31.719207      30.055982      402.84442      178.38685     -141.1847       2570168.7    
    601000   300.46051      0.8956126      0.67898125     1.5745938      157.66589      89.506741      182.13988      191.21151     -179.41241     -58.591992     -223.87779      103.09263     -27.683141      2570387.1    
    602000   300.03376      0.89434053     0.67697295     1.5713135      157.50482      89.522511      182.14521      117.27631      204.01057      103.87117     -5.2458964      13.702464     -42.101106      2568288.9    
    603000   300.09486      0.89452268     0.67735458     1.5718773      157.55659      89.519099      182.1533      -2.2960682     -177.60646      124.51124      203.78107      86.551501     -28.221792      2569149.2    
    604000   300.26841      0.89504        0.67864109     1.5736811      157.67145      89.48852       182.32882     -185.40602      84.095933     -171.73731      156.15053     -64.50291      -133.56877      2572620.4    
    605000   300.23405      0.89493755     0.6786463      1.5735839      157.57958      89.483018      182.10317     -143.38772     -372.86463     -37.208442     -271.52899      219.48634      59.755012      2567781.5    
    606000   300.02495      0.89431427     0.67882317     1.5731374      157.54397      89.504988      182.12805     -56.117912     -329.60203      23.338697     -148.46293      264.42541     -217.1605       2568182.4    
    607000   300.28514      0.89508985     0.67643759     1.5715274      157.5225       89.503115      182.11721      243.00026      0.99969523     143.84513     -112.6743       143.4289      -33.869886      2567625.9    
    608000   300.1804       0.89477763     0.6801986      1.5749762      157.47106      89.502739      182.20344      247.52017     -152.71891     -7.8277605      31.163645      143.74316     -99.382016      2567991.9    
    609000   299.47152      0.89266462     0.67904369     1.5717083      157.55564      89.489732      182.21723      370.80339      183.8333       73.805144     -148.10884      88.996259     -125.09988      2569192.3    
    610000   299.3504       0.89230358     0.67577282     1.5680764      157.50504      89.540139      182.1039       15.314124      156.01932     -80.424512      110.17996      83.010782     -36.010575      2568215.5    
    611000   300.18554      0.89479297     0.67758872     1.5723817      157.55368      89.454115      182.07111      21.678402      112.38594     -0.17243018    -210.22232      229.80691      66.465895      2566078.3    
    612000   299.58401      0.89299994     0.67939366     1.5723936      157.59994      89.515665      182.19348     -31.812301     -99.519817      7.886318      -161.41349     -176.90694     -115.60281      2570324.3    
    613000   300.1339       0.89463903     0.67804786     1.5726869      157.54499      89.492346      182.19855      271.1726       136.25045      78.558689     -235.77463      147.9599      -174.40819      2568830.2    
    614000   300.69448      0.89631001     0.67912987     1.5754399      157.61033      89.529325      182.17593      300.17917      189.78395      207.59319     -178.97844      133.98794      31.387139      2570638.4    
    615000   300.79541      0.89661087     0.67585823     1.5724691      157.53887      89.491356      182.10046      173.45431      384.96489      26.860596     -194.94194      192.44593     -170.06213      2567319.1    
    616000   300.84887      0.89677021     0.67812909     1.5748993      157.55002      89.50428       182.12681      70.811488     -321.34014      0.3566417      313.20308      87.295988     -27.352231      2568243.1    
    617000   299.82392      0.89371504     0.67772639     1.5714414      157.4116       89.511948      182.29777     -285.14134     -377.24139     -193.78253      55.798891      213.83999     -90.041853      2568615.6    
    618000   299.99603      0.89422807     0.67633773     1.5705658      157.53297      89.441724      182.20619      295.22982      210.86998      95.165657      25.325362      178.37557     -62.441544      2567288.9    
    619000   300.14736      0.89467915     0.67762909     1.5723082      157.61026      89.430718      182.08501      320.66795      87.17778      -95.123815     -199.76286      131.6863      -245.60555      2566524.3    
    620000   299.89946      0.89394022     0.678653       1.5725932      157.61849      89.501721      182.24922      215.97193     -234.08758      75.707585     -188.52315      244.30351     -95.921359      2571012.8    
    621000   300.39182      0.89540783     0.67938236     1.5747902      157.55346      89.492397      182.19754     -27.255014     -487.48887      71.14344       292.42358      11.799407     -73.329784      2568955.5    
    622000   300.3734       0.89535295     0.67695633     1.5723093      157.5483       89.480298      182.23026      31.980136      273.7544      -37.251972     -344.13901      5.5741912     -85.63947       2568985.3    
    623000   299.37627      0.89238071     0.67784635     1.5702271      157.64493      89.491289      182.30655     -201.076       -204.30071      154.75639      26.2462        24.660325      31.576324      2571953      
    624000   300.10462      0.89455177     0.67920458     1.5737564      157.595        89.448569      182.17787      238.27383      345.56472      278.60688     -80.771505      53.529269     -142.43206      2568097.3    
    625000   299.4253       0.89252684     0.67644333     1.5689702      157.62984      89.41442       182.09547     -229.83379      373.0713       251.34697      6.543018       176.63522      30.999229      2566522.9    
    626000   299.92055      0.8940031      0.67876228     1.5727654      157.50855      89.449528      182.14894     -81.733217     -253.56993      17.538166     -148.55249      16.844263     -52.449798      2566308.3    
    627000   299.86964      0.89385133     0.67874226     1.5725936      157.63943      89.481026      182.23464      217.61318     -155.70683     -137.27384      55.064309      140.41351     -245.39014      2570554.1    
    628000   299.95325      0.89410056     0.67713639     1.571237       157.61951      89.457469      182.23962      113.78895     -93.669852      182.79798      74.692994     -69.305697     -34.479509      2569622.8    
    629000   299.9126       0.89397938     0.67892934     1.5729087      157.5813       89.439484      182.26237     -132.73865     -226.2768      -173.15005     -7.1144008      3.2044176     -29.756818      2568804.1    
    630000   299.10055      0.89155883     0.67798152     1.5695404      157.55081      89.455643      182.16059      347.08835     -35.830805     -106.82327     -199.43682      147.20646     -62.150065      2567336.6    
    631000   300.79015      0.89659519     0.678125       1.5747202      157.53575      89.471495      182.1725      -102.21604      264.34596      228.70714      215.83019      53.22981      -190.12151      2567714.1    
    632000   300.29054      0.89510595     0.67756387     1.5726698      157.63956      89.482655      182.27849     -409.57287     -149.03875     -114.8821      -90.228201      64.248039     -68.083139      2571221.6    
    633000   301.0328       0.89731849     0.67956809     1.5768866      157.55017      89.486905      182.27531      198.48083     -246.14352      34.347622      122.18083      37.145302     -94.796768      2569840.7    
    634000   299.4723       0.89266694     0.67812086     1.5707878      157.5932       89.488759      182.26911     -344.93811     -259.91039     -180.44521     -40.546207      35.504602     -222.94526      2570508.3    
    635000   300.87934      0.89686105     0.67799938     1.5748604      157.67126      89.495938      182.20669      27.112677     -96.302612      52.186414      27.658849      272.25021     -116.72036      2571107.1    
    636000   300.0241       0.89431174     0.67939775     1.5737095      157.59365      89.501986      182.25227     -85.616709     -512.67464     -279.77378      255.9102       7.6947192     -132.71991      2570658.2    
    637000   299.75953      0.89352312     0.67968944     1.5732126      157.57425      89.490735      182.40915      129.69836     -283.93919     -46.649458      65.664329      127.7484       13.666959      2572230.8    
    638000   299.95636      0.89410982     0.67781363     1.5719235      157.5661       89.510919      182.34931      215.62421      13.077596     -250.8993      -109.70435      78.84523      -93.708844      2571833.9    
    639000   300.34853      0.89527879     0.67754105     1.5728198      157.58063      89.50456       182.1961       171.6975       203.46191      389.60061      171.44052      5.9902315     -163.46584      2569727.4    
    640000   299.29893      0.89215017     0.67530103     1.5674512      157.57769      89.54063       182.23392      106.39353      235.95966     -31.274452      16.978121      195.56907     -76.139579      2571248.8    
    641000   299.41727      0.8925029      0.67848309     1.570986       157.58647      89.47198       182.23325      275.00133      22.153115      261.24237      308.75076      86.483301     -33.666152      2569411.2    
    642000   300.23575      0.89494262     0.67770256     1.5726452      157.68115      89.425339      182.31429      38.357448      378.71026     -89.405279     -223.13682      36.867255     -219.14804      2570757.4    
    643000   299.23305      0.8919538      0.67741568     1.5693695      157.56536      89.462203      182.22832      5.229715      -7.9355773     -131.0144       251.21964      132.34311     -2.8893753      2568716.8    
    644000   299.91619      0.8939901      0.67696548     1.5709556      157.51284      89.464501      182.24977      233.77168      51.362209      109.62822      133.08106     -143.84361     -296.93971      2568228.7    
    645000   300.47566      0.89565777     0.67966599     1.5753238      157.6002       89.517772      182.17561      514.8669       215.38312     -29.218551     -47.68315       205.92014     -208.61655      2570136.9    
    646000   300.03487      0.89434385     0.67673117     1.571075       157.51141      89.484238      182.19768      26.517719     -339.13842     -159.57703      77.364936      17.019942      30.347865      2568037.7    
    647000   299.50416      0.8927619      0.67685192     1.5696138      157.5367       89.501205      182.18416     -231.93071     -149.39649     -70.344134      71.606967      72.758039     -165.90434      2568746.5    
    648000   299.28309      0.89210295     0.6812417      1.5733446      157.62684      89.519538      182.27433     -341.79977      8.3044121      44.58094       25.361423     -127.99734     -40.508576      2572015.2    
    649000   300.41076      0.8954643      0.67742416     1.5728885      157.53717      89.466777      182.17823     -39.785177      35.540258      15.428542      199.44933     -71.113127     -115.08827      2567682.5    
    650000   299.44722      0.89259218     0.67976705     1.5723592      157.59303      89.484656      182.35147     -220.56271     -26.489686     -32.006523      121.90242      81.813832      75.368731      2571549.2    
    651000   299.98748      0.89420259     0.67750159     1.5717042      157.6293       89.468561      182.30868      163.18105      39.889628     -103.21854      2.0567575      160.13571     -119.13022      2571075      
    652000   300.47426      0.8956536      0.68187535     1.5775289      157.67389      89.473011      182.27485     -41.071868     -70.371396      113.34616      70.994715      135.80839     -54.905773      2571453.1    
    653000   300.12247      0.89460497     0.67913945     1.5737444      157.49871      89.462952      182.2699       198.72755      235.14934      31.892373     -294.7138       27.563766     -216.27075      2568237.4    
    654000   300.16242      0.89472407     0.67788864     1.5726127      157.47675      89.472194      182.1444       34.612101      58.992279      167.73527      237.75124     -132.37463     -109.12934      2566376.4    
    655000   300.01231      0.8942766      0.67998444     1.574261       157.60694      89.511857      182.30245     -127.38962      79.343979     -183.45677      116.20118     -30.999725     -166.52432      2571866.4    
    656000   300.15923      0.89471455     0.67458043     1.569295       157.64         89.479408      182.21291     -123.55878      200.21491      9.865896       181.2862      -104.12377     -102.8867       2570210.4    
    657000   299.83311      0.89374245     0.68032096     1.5740634      157.6688       89.531624      182.25489      248.55982     -298.50672     -102.89562     -7.7919785     -55.08895      -2.0241331      2572772.6    
    658000   300.07753      0.89447101     0.68036644     1.5748374      157.63526      89.502036      182.18444      158.60378     -162.56227     -103.6117      -15.891994      1.4806722     -126.37345      2570381.4    
    659000   300.11416      0.8945802      0.67539545     1.5699756      157.57793      89.44427       182.2558       288.66614      72.437475     -59.84219       160.5467      -46.073996     -205.86084      2568794.1    
    660000   299.37195      0.89236781     0.67927291     1.5716407      157.59994      89.502615      182.24529     -242.88521     -312.47724     -64.837502     -141.09037     -74.213582     -100.15528      2570680.4    
    661000   300.08337      0.89448841     0.67946504     1.5739535      157.53461      89.446353      182.08517     -242.9284      -51.664772      127.16949     -114.26401      226.68256     -7.1325436      2565743.2    
    662000   299.6784       0.8932813      0.67891139     1.5721927      157.51931      89.48217       182.12138      237.59083     -35.274201      100.11979     -81.311467     -8.6083744     -61.509914      2567031.7    
    663000   300.53222      0.89582634     0.67683325     1.5726596      157.53303      89.490809      182.23204      424.90922      12.64106       30.104426     -307.79483      21.648337     -119.37566      2569063.2    
    664000   299.76522      0.89354006     0.6781705      1.5717106      157.50969      89.509077      182.3448       3.2440633      69.74206      -182.61261      38.714263      89.478867     -147.29587      2570796.8    
    665000   300.45539      0.89559734     0.67731795     1.5729153      157.5578       89.470427      182.14485      22.117076     -175.08799      135.16845     -50.221846     -9.7854214      149.47986      2567653      
    666000   299.15661      0.89172594     0.67807827     1.5698042      157.64783      89.463975      182.13366      40.801385     -1.0216868     -115.12723      10.252175      168.49782     -150.60446      2568776.9    
    667000   300.45207      0.89558743     0.68237805     1.5779655      157.64957      89.46245       182.17475     -194.58077     -218.52911      216.31897      140.22314      221.42742     -143.05216      2569341      
    668000   300.14482      0.8946716      0.67893935     1.5736109      157.56293      89.467901      182.24938      108.10759     -69.818491      123.33664     -19.219827      70.730756     -228.05197      2569137.6    
    669000   300.8723       0.89684008     0.67907011     1.5759102      157.57699      89.460948      182.2053       249.5456      -102.3093      -88.145264     -148.33758      69.564129     -18.282094      2568545.8    
    670000   300.35954      0.89531163     0.67926695     1.5745786      157.51624      89.496552      182.11516      47.985933      21.366028     -17.949159     -184.13034      27.635487     -70.045683      2567306.7    
    671000   300.70719      0.89634789     0.67752598     1.5738739      157.59908      89.497581      182.25719     -354.87959      274.63138     -114.59938      59.881656      27.139375     -119.93304      2570689.6    
    672000   300.29475      0.8951185      0.67569567     1.5708142      157.69175      89.443339      182.20686     -366.97453      217.16287     -195.99699     -154.79835      250.72963     -160.96659      2569932.3    
    673000   299.54927      0.89289636     0.67738648     1.5702828      157.46965      89.505064      182.10317      111.17326     -260.80522     -32.217749     -112.66033      227.45911     -95.679444      2566622.4    
    674000   300.15487      0.89470154     0.67608803     1.5707896      157.46229      89.494057      182.17799      38.167314     -107.72874      23.763922      14.969939     -97.863214     -226.66167      2567241.1    
    675000   300.04791      0.89438272     0.67575285     1.5701356      157.48271      89.464193      182.21359     -48.111149      327.38654     -260.09669      121.02948     -1.6462899     -181.08013      2567218.8    
    676000   299.79832      0.89363873     0.67962784     1.5732666      157.51117      89.555096      182.10026      288.33742      8.0565464      30.374042      150.82071      235.39985     -1.5368089      2568693.1    
    677000   300.12965      0.89462636     0.67822448     1.5728508      157.63498      89.501316      182.26301     -193.1347       124.7694      -196.74799     -52.204391      78.485123     -154.16992      2571464.5    
    678000   300.11025      0.89456856     0.67649549     1.571064       157.5144       89.499499      182.22239     -377.14606     -17.429615     -56.377205      313.14886     -33.263397     -80.607947      2568872.9    
    679000   300.58147      0.89597317     0.67842803     1.5744012      157.51201      89.501923      182.1411       27.589056     -123.49401      62.820353     -178.012        88.551733     -98.546426      2567757.5    
    680000   300.01405      0.89428178     0.67926211     1.5735439      157.63261      89.48302       182.15401      166.25119      148.11545     -191.9494      -189.75798      196.77806     -126.44192      2569362.8    
    681000   300.19317      0.89481572     0.67747934     1.5722951      157.56938      89.490427      182.21359     -339.51583      168.00132      188.87459      118.40176      154.00169      35.440681      2569385      
    682000   299.88898      0.89390897     0.6781265      1.5720355      157.61714      89.465592      182.22921     -282.41732     -153.87895     -116.65952      82.190957      11.167759     -153.11783      2569670.7    
    683000   300.32183      0.89519923     0.67804258     1.5732418      157.57352      89.472933      182.19084      259.72655     -18.360488     -47.697707      63.878757      20.937952     -90.5965        2568629.4    
    684000   300.36593      0.89533067     0.67626244     1.5715931      157.56202      89.475462      182.02023     -57.825436      260.34705      375.68042      372.02515      79.298561      27.416607      2566109.2    
    685000   299.94864      0.89408681     0.67634654     1.5704333      157.59058      89.479455      182.25962      190.39653      192.48378      0.86528239     102.31187     -38.620239     -137.15286      2570064.5    
    686000   300.53531      0.89583556     0.67634223     1.5721778      157.51896      89.49335       182.19117     -134.69151      534.78172     -49.390492     -268.95559      29.895449     -82.260385      2568330.7    
    687000   300.34616      0.89527174     0.67728659     1.5725583      157.66379      89.529027      182.21869     -65.786832     -488.17719     -133.61472      98.945954      38.089616     -27.747029      2572105.3    
    688000   300.0973       0.89452994     0.67714101     1.571671       157.48631      89.485255      182.19395      55.835129     -219.65838     -164.81224     -28.053235      62.735488     -70.01483       2567605.2    
    689000   300.6812       0.89627043     0.67807846     1.5743489      157.51238      89.528811      182.1229      -95.417349     -539.69517      180.79477     -160.66635     -21.117407     -26.483702      2568278.2    
    690000   299.51006      0.89277951     0.67828813     1.5710676      157.46002      89.497145      182.14511     -154.40218     -118.11816     -20.920619     -277.89432      50.735051      72.520599      2566829.4    
    691000   300.18328      0.89478623     0.67723384     1.5720201      157.50801      89.491439      182.19705      33.343162      70.365831      107.30278     -70.060955     -43.542218     -35.460693      2568180.1    
    692000   299.92884      0.8940278      0.67704292     1.5710707      157.56505      89.483912      182.15993     -6.9178186      238.23988     -85.631893     -88.366325      117.82514     -217.9083       2568370.6    
    693000   300.13263      0.89463524     0.67495653     1.5695918      157.55362      89.508992      182.00563     -219.4891       146.95398     -89.313271     -116.74979     -69.135843     -159.64834      2566728.1    
    694000   299.03784      0.89137191     0.67828373     1.5696556      157.55072      89.526875      182.0399      -43.307819      87.773602      147.7493      -17.002311      248.66841     -136.99104      2567677.2    
    695000   299.78306      0.89359326     0.67513716     1.5687304      157.51157      89.502219      182.07733     -202.08618     -144.68211     -40.645241      283.95398     -1.814613      -80.391933      2566859.7    
    696000   299.45402      0.89261245     0.68221819     1.5748306      157.46691      89.514294      182.23375      139.61729     -71.999575     -12.455344     -141.02974      192.54836     -53.096484      2568682.9    
    697000   299.60644      0.89306679     0.677171       1.5702378      157.51793      89.5177        182.25423     -85.885796     -132.63352     -70.670494     -205.42762      174.98062     -124.45402      2569901.7    
    698000   300.03901      0.89435618     0.67612221     1.5704784      157.52603      89.486045      182.18565      139.54028     -30.496453      148.04935      225.03442     -143.21452     -227.00645      2568158.5    
    699000   300.3049       0.89514877     0.67634606     1.5714948      157.5363       89.498845      182.04855      183.90113     -198.88792      63.192775      19.688917      125.75278     -172.76136      2566760.2    
    700000   299.81419      0.89368604     0.67739738     1.5710834      157.61586      89.518734      182.1163      -2.1674638     -250.02037     -37.930695     -94.709277      41.704791     -48.114415      2569583      
    701000   299.91632      0.89399047     0.67667218     1.5706627      157.54817      89.47882       182.14459     -281.70154      22.409685     -106.38498      84.813315     -47.720992     -101.83687      2567733.2    
    702000   299.68683      0.89330643     0.67714929     1.5704557      157.46309      89.440599      182.29653      119.69965      189.58021     -137.27093     -3.2302391      86.665875     -37.980641      2567390.1    
    703000   300.27744      0.89506689     0.67906753     1.5741344      157.51247      89.529604      182.27379      56.523081     -33.036952     -37.258286      58.627279      0.81512444     23.977183      2570430.3    
    704000   300.16596      0.89473461     0.67994114     1.5746758      157.51238      89.520459      182.09193     -158.21175     -57.970039      200.33638     -341.011       -13.619803     -225.91341      2567601.9    
    705000   300.45894      0.89560791     0.6745104      1.5701183      157.56279      89.475122      181.96989      61.956598      604.61301      284.11648      78.115453      62.963206     -109.3133       2565402.3    
    706000   299.9264       0.89402052     0.67559469     1.5696152      157.51393      89.5064        182.15559     -212.76879      29.613742      83.113194     -54.720828      116.5445      -197.82293      2568121.4    
    707000   300.07628      0.89446727     0.67712374     1.571591       157.52627      89.503692      182.17108     -139.18357      320.72043     -270.43357     -8.6334657      3.9149978     -124.75154      2568463.3    
    708000   299.87966      0.8938812      0.67605867     1.5699399      157.62813      89.467244      182.1309      -174.33999     -58.830686     -240.68585     -194.35085      229.52461     -157.98822      2568510.8    
    709000   299.9756       0.89416718     0.67511384     1.569281       157.54544      89.483088      182.09255     -286.69579      143.7589      -201.40876      61.533473      151.90629     -286.49038      2567077.5    
    710000   299.59551      0.8930342      0.67766896     1.5707032      157.53139      89.500982      182.10171      157.78405     -466.07753     -21.57613      -52.586055      73.665589     -131.35926      2567490.9    
    711000   300.69996      0.89632635     0.67713258     1.5734589      157.55559      89.488466      182.25669      153.30865      211.67751     -268.2708      -109.76957      174.37599     -284.169        2569711.5    
    712000   299.57747      0.89298043     0.67888221     1.5718626      157.49497      89.459376      182.19154      431.14901      88.862238     -61.382665     -129.27219     -14.437023      5.729154       2566969.8    
    713000   300.53027      0.89582054     0.67635437     1.5721749      157.56392      89.486935      182.29342      38.145361     -56.658754      17.435094      113.90205      86.761068     -77.439406      2570321.2    
    714000   299.89792      0.89393564     0.67743271     1.5713683      157.55978      89.495438      182.17946     -43.267289      353.84614      70.258717      93.888645     -22.065029      48.17283       2568891      
    715000   300.62103      0.89609108     0.67580229     1.5718934      157.50201      89.505801      182.20154      102.07473     -307.17965     -3.6803408      210.64286      195.87304     -86.110334      2568557.6    
    716000   300.07608      0.8944667      0.67552049     1.5699872      157.52014      89.516189      182.11704      150.55254     -301.3859       77.365446     -0.86135456     97.873709     -230.74681      2567959.9    
    717000   300.00729      0.89426163     0.67889452     1.5731561      157.5917       89.505432      182.19131      84.191305     -318.90554      62.054856      279.36625      96.446741     -75.659631      2569865.5    
    718000   300.8376       0.89673664     0.67861608     1.5753527      157.59683      89.491032      182.267       -154.60179      185.86478     -86.279981     -228.2904       154.24215     -108.0071       2570603.3    
    719000   299.6527       0.89320467     0.67757839     1.5707831      157.56689      89.45904       182.23229     -81.152854      76.076117     -119.94093      41.331323      21.81553      -116.25046      2568706.9    
    720000   299.99857      0.89423566     0.67705101     1.5712867      157.62917      89.502095      182.15693      15.072221     -281.19098     -22.893824      242.65453     -91.774363      60.070046      2569895.7    
    721000   299.42115      0.89251447     0.67730739     1.5698219      157.63666      89.504906      182.3288      -126.4088      -175.4536      -58.661506      132.94901     -27.437329     -238.2989       2572523.4    
    722000   298.87445      0.89088487     0.67710022     1.5679851      157.58175      89.461401      182.28522      125.11275      149.50201     -96.814041     -295.24755      9.0821587     -94.761579      2569763      
    723000   300.00865      0.8942657      0.67905339     1.5733191      157.63538      89.429428      182.09286     -30.501469      94.705359      223.48807     -167.62157      150.09042     -128.02292      2567007      
    724000   300.71914      0.89638352     0.67644351     1.572827       157.53693      89.458586      182.13244     -23.660673      172.41695     -183.93028      210.75251      145.82792     -177.5331       2566798      
    725000   300.13105      0.89463054     0.67680581     1.5714364      157.5564       89.522683      182.19367     -236.77324     -208.37957     -2.3536209      20.710413      99.572557      39.381043      2569818.3    
    726000   299.8838       0.89389355     0.67851562     1.5724092      157.50295      89.438007      182.18558      25.983788     -412.76077     -190.47852      296.60518      169.40372     -146.01563      2566402.7    
    727000   299.01912      0.89131611     0.67517007     1.5664862      157.54997      89.449362      182.17293      84.893937      60.190977     -187.66173      25.968667      63.130224      8.4898025      2567316.5    
    728000   300.1937       0.8948173      0.67633035     1.5711476      157.6095       89.466026      182.17528     -722.34282     -37.703806     -142.66775      89.093176      92.016862     -14.208707      2568798.2    
    729000   300.49475      0.89571467     0.67749528     1.5732099      157.51         89.512689      182.15452     -84.640124     -67.949309      148.4608      -83.950509      42.275996     -115.3875       2568222.8    
    730000   299.81219      0.8936801      0.67675344     1.5704335      157.59726      89.476471      182.18749     -351.34941     -265.72264     -24.922993      47.489069     -65.008055     -91.542616      2569070.7    
    731000   299.22101      0.8919179      0.67916228     1.5710802      157.60915      89.469752      182.15965     -152.60553     -159.53565     -47.572338      73.210113      8.2618389     -50.748287      2568679.1    
    732000   299.79342      0.89362415     0.67998072     1.5736049      157.69614      89.506153      182.20201     -102.00182     -224.47181     -141.56801     -120.78933      94.422066     -74.466138      2571740.4    
    733000   299.56183      0.89293382     0.67902288     1.5719567      157.54469      89.491791      182.23376     -257.59367     -8.7737727     -52.528479      17.487175      80.610503      9.4667513      2569305.9    
    734000   300.23761      0.89494818     0.67638972     1.5713379      157.52368      89.488008      182.22084     -38.265167     -354.42026     -417.43109      98.193346      34.489065     -32.563842      2568672.5    
    735000   299.8596       0.89382141     0.67632944     1.5701509      157.52375      89.485057      182.04737     -83.370788      103.37451      149.97889     -286.67973      127.83467     -236.71062      2566143.7    
    736000   298.80203      0.890669       0.67894024     1.5696092      157.6984       89.500959      182.19072     -2.0245414      344.05002     -23.556699     -130.91086      88.216137     -105.48759      2571468.6    
    737000   299.78327      0.89359389     0.67917795     1.5727718      157.57298      89.489248      182.21544      164.88134      72.497498     -71.838019      13.083844     -1.3295157      22.92087       2569435.8    
    738000   299.91404      0.89398368     0.67595547     1.5699392      157.53535      89.489837      182.06994     -343.48261     -259.35542     -100.68965     -7.9286263      114.12993      68.124511      2566787.9    
    739000   300.07707      0.89446965     0.67633592     1.5708056      157.47558      89.525853      182.13304     -78.021089     -171.80277      10.810695      89.707052      121.94166     -12.162539      2567736.3    
    740000   300.05337      0.894399       0.67636175     1.5707607      157.48247      89.52658       182.0833      -354.1537      -144.42461     -112.90687      29.363983      192.89585     -135.42184      2567168.1    
    741000   300.00686      0.89426035     0.67874779     1.5730081      157.51702      89.504963      181.98291     -140.21352     -176.71962      283.30227      216.56832      26.03889       79.704882      2565696      
    742000   300.23376      0.89493669     0.6785041      1.5734408      157.55489      89.51138       182.09417     -135.59375     -74.807987      96.203078     -94.071976      62.005849     -133.85836      2568065.9    
    743000   300.53177      0.895825       0.67872497     1.57455        157.55846      89.548492      182.16723      343.68394      167.23221     -122.02503     -19.441684      17.34224      -53.795712      2570219.7    
    744000   300.19347      0.89481661     0.67656913     1.5713857      157.47471      89.543136      182.16372     -142.4796      -43.246528     -88.815578      86.633768      101.57639     -84.923618      2568650.4    
    745000   299.76579      0.89354177     0.67666298     1.5702047      157.46264      89.537515      182.01218     -97.537411      33.235309      125.35194      21.754552     -114.49656     -224.54751      2566155.7    
    746000   299.64834      0.89319168     0.67793142     1.5711231      157.54696      89.448339      182.07988     -43.382811      51.627449      309.2608      -196.11881      161.00074      57.483101      2565926.9    
    747000   299.59452      0.89303124     0.67780369     1.5708349      157.58438      89.493542      182.10484     -323.01706     -439.12532     -243.8704      -182.07026      292.24061      86.715289      2568185.3    
    748000   299.87089      0.89385505     0.67727672     1.5711318      157.53156      89.514093      182.12367     -358.42998     -49.688225     -203.69516     -168.90943      175.13919     -90.05056       2568179.5    
    749000   299.20402      0.89186724     0.67609099     1.5679582      157.50575      89.428908      182.07084      154.11245      400.84333     -56.543909      32.315675      18.859266     -190.38137      2564571      
    750000   300.69014      0.89629708     0.67656686     1.5728639      157.52552      89.496729      182.08681      20.305232      223.66589     -12.899126      56.770892      64.83279      -102.75548      2567063.3    
    751000   299.87872      0.89387839     0.6770545      1.5709329      157.41797      89.516416      182.1288       168.75424     -31.719608      33.535958     -37.387503     -57.533794      13.490359      2566466.5    
    752000   300.70635      0.89634539     0.67613914     1.5724845      157.38757      89.50822       182.12149      160.83345      188.35282     -118.80471      171.49854     -47.135661     -77.232926      2565633      
    753000   300.16908      0.89474391     0.67206742     1.5668113      157.55327      89.487033      181.99019     -342.55381     -115.03167     -59.541776     -80.063669      119.96051     -122.13098      2565875.1    
    754000   301.16596      0.89771539     0.67648442     1.5741998      157.46511      89.506431      182.00543     -24.78388       163.53185     -258.7816      -123.83847      69.775491     -81.431947      2565210      
    755000   301.0853       0.89747498     0.67606757     1.5735425      157.48135      89.528308      182.09352     -372.68981     -304.5119      -62.073436      45.520687      63.483381     -45.103114      2567343.5    
    756000   298.8129       0.8907014      0.67788234     1.5685837      157.39473      89.517826      182.06796     -43.429476      72.016716     -6.6058451      115.50814      56.790503      14.405978      2565271      
    757000   300.63588      0.89613535     0.67670514     1.5728405      157.43554      89.523341      182.15605     -78.686407     -105.77845     -117.1377      -35.253159      116.42231     -108.08663      2567335.6    
    758000   299.67231      0.89326315     0.67902656     1.5722897      157.51722      89.592214      181.9959       6.7822057     -206.23452     -69.927965     -69.594571      252.36687     -39.935981      2568383.6    
    759000   299.54564      0.89288556     0.67848769     1.5713732      157.47837      89.531006      182.01755     -387.11867     -152.33579     -67.11477      -90.581798      34.624708     -140.82132      2566301.4    
    760000   300.4183       0.89548678     0.67752776     1.5730145      157.54133      89.488921      182.21485      365.40811      76.214872      45.073816      7.453978       12.261799     -161.84639      2568902.1    
    761000   299.74706      0.89348594     0.67939126     1.5728772      157.53139      89.529287      182.18185      21.754226      81.511452      190.34172     -84.45836       258.21726     -155.25745      2569433.2    
    762000   299.68411      0.89329831     0.67697629     1.5702746      157.51024      89.502434      181.99732      4.6265663      142.30997      120.24745      47.828659      309.7663      -36.353547      2565716.3    
    763000   299.91918      0.893999       0.67862823     1.5726272      157.50866      89.50398       181.97745     -2.8389533      68.720786     -155.4597      -14.500693     -26.201707     -120.94032      2565454.7    
    764000   300.5227       0.89579798     0.67804924     1.5738472      157.59489      89.489692      182.0365      -155.89749      437.113        134.81771      13.725524      30.837163     -142.96216      2567282.3    
    765000   299.4989       0.89274622     0.67858596     1.5713322      157.44163      89.45663       182.08211      110.87126     -124.93566      185.39024     -37.558071      55.090084     -177.35603      2564480.4    
    766000   299.74882      0.89349119     0.67666093     1.5701521      157.48924      89.472869      182.04838     -241.51463     -68.4557        5.9543092     -33.632717     -3.3543169     -45.398432      2565246.2    
    767000   299.87242      0.89385963     0.67618947     1.5700491      157.498        89.485225      182.10507      84.565531     -11.368868     -76.964809      175.29958      130.39558     -76.986376      2566542.2    
    768000   300.07193      0.89445431     0.67482683     1.5692811      157.51422      89.526421      181.96477     -214.98759     -351.92361      64.896285     -202.28628      144.26324     -104.96587      2566009.7    
    769000   299.71764      0.89339825     0.67888247     1.5722807      157.49448      89.497338      182.0906       195.92996      390.21393      72.762278     -149.97757      82.373558     -147.46659      2566628.4    
    770000   299.46538      0.8926463      0.67583849     1.5684848      157.49147      89.511523      182.15904      178.77495      79.254039     -81.313633     -206.98817      44.28239       29.799592      2567950.9    
    771000   300.05036      0.89439002     0.67782029     1.5722103      157.44322      89.500065      182.21878      69.537748      249.05167      39.831691     -274.11923      115.66483     -38.19938       2567677.3    
    772000   300.0289       0.89432607     0.67717321     1.5714993      157.57991      89.478268      182.12035      384.6845      -242.22114     -63.342632      144.98513      54.082932     -143.60174      2567892.7    
    773000   299.70327      0.89335541     0.67739214     1.5707475      157.46796      89.510068      182.16476      226.26997      16.767124      138.54744     -291.40335     -20.297284     -160.703        2567606.5    
    774000   299.50494      0.89276424     0.67590835     1.5686726      157.48041      89.545464      182.03346     -323.66471     -60.988351      159.0242       100.27187      155.58068     -310.59273      2566973.3    
    775000   299.53509      0.89285411     0.67663284     1.5694869      157.49542      89.532359      182.05115      227.93368     -505.46688      93.008387      160.30846      93.264779     -72.957239      2567091.8    
    776000   299.25319      0.89201383     0.67615968     1.5681735      157.38756      89.547461      182.07428      182.28901      69.320634      33.857749     -377.77639      31.101744     -162.43888      2566092.4    
    777000   300.54406      0.89586165     0.67812867     1.5739903      157.49519      89.515777      182.01338      57.238455      535.13749      96.051393     -42.394447      170.92026     -210.20051      2566080      
    778000   300.54176      0.89585479     0.67539054     1.5712453      157.5831       89.512879      182.02403      121.92519      82.366327      146.41042     -178.50619      41.228731     -193.41904      2567579.4    
    779000   300.03846      0.89435454     0.67617177     1.5705263      157.51641      89.472095      182.24982     -296.61883      213.71727     -349.96268     -142.1719       143.6259      -111.72259      2568505.7    
    780000   299.64985      0.89319618     0.67739365     1.5705898      157.43339      89.482961      182.05143     -0.17138478    -232.61513      53.886269     -54.731712      175.70624     -95.020101      2564668.8    
    781000   299.35465      0.89231626     0.67761738     1.5699336      157.57108      89.519607      182.19609     -393.42055     -472.5093      -18.100214      280.73051      36.853794     -126.96351      2570003.6    
    782000   300.50707      0.89575139     0.67487198     1.5706234      157.46684      89.497378      182.08384     -397.46319      178.52963     -79.845521      201.694        134.30641     -136.89412      2566083.7    
    783000   299.07899      0.89149455     0.67621772     1.5677123      157.51094      89.466961      182.13031     -263.07707      126.67568     -23.591639     -97.776423     -44.699069     -205.20712      2566585      
    784000   299.79558      0.89363058     0.67609148     1.5697221      157.54493      89.492246      182.11664      109.2779       63.0844        84.277899      23.71701       10.21987      -52.9992        2567671.6    
    785000   300.71243      0.89636352     0.67947998     1.5758435      157.54575      89.495911      182.29346     -504.22443      149.58334     -53.078777      13.863824     -6.2515325      124.65589      2570283.1    
    786000   299.90263      0.89394966     0.67566194     1.5696116      157.51441      89.491224      182.19965     -5.7248581      237.91039     -47.308473     -78.221556     -31.574077      22.792165      2568315      
    787000   299.35403      0.89231442     0.67591118     1.5682256      157.45617      89.469207      182.0947      -7.2628292      25.664812     -38.098253     -3.0318213     -97.43753      -146.2942       2565255.3    
    788000   300.46436      0.89562408     0.67860189     1.574226       157.55799      89.473457      182.06242     -293.66651      97.108773     -49.815425     -23.385452      215.84397      36.677653      2566580.8    
    789000   300.55038      0.89588048     0.67535336     1.5712338      157.47474      89.453685      182.17728      387.37496      117.85243      94.326245      312.64919      168.06911     -71.786799      2566275.9    
    790000   300.71293      0.896365       0.67610684     1.5724718      157.4862       89.443249      182.23588      77.487805      92.965741     -138.77923     -78.624121      247.13107     -159.57096      2566988.7    
    791000   299.31267      0.89219113     0.67809733     1.5702885      157.50675      89.521496      182.10493      29.70071      -160.97618      22.581444     -258.99008      107.95279     -164.15084      2567723.3    
    792000   300.25045      0.89498645     0.67723552     1.572222       157.47116      89.493551      182.08367      389.75596     -55.159194      296.51433     -59.531558      20.904698     -0.5832622      2566042      
    793000   300.93414      0.8970244      0.67803075     1.5750552      157.46123      89.546623      182.07265      481.23617     -65.771339     -53.77826       80.665293      165.96483     -33.60477       2567246.5    
    794000   299.64826      0.89319144     0.67847458     1.571666       157.55546      89.494225      182.15446     -84.018127      199.07985     -133.75135     -114.82381      141.67612     -47.047396      2568433.2    
    795000   299.59893      0.89304439     0.68063322     1.5736776      157.53587      89.495131      182.25668      44.899297     -148.79424      127.3897       93.157724      116.0763      -66.862745      2569581.1    
    796000   300.22116      0.89489914     0.67522281     1.5701219      157.46519      89.49535       182.08468     -254.70769      99.025287      291.07703      5.8408207      20.900518     -7.0619457      2566010.5    
    797000   301.52015      0.89877118     0.67505774     1.5738289      157.51998      89.483492      182.12234     -609.11916     -139.13853      97.463958      223.01227     -1.1894741     -268.29263      2567094.2    
    798000   300.83751      0.89673635     0.67595253     1.5726889      157.52959      89.505129      182.15603      224.65937      120.6651       71.061071     -72.965775      178.25441     -235.2167       2568346.5    
    799000   300.13245      0.89463472     0.6771714      1.5718061      157.55185      89.531716      182.11376     -60.493636     -220.82965      177.67239     -49.575338      124.00716     -259.23949      2568876.2    
    800000   299.80963      0.89367245     0.67647525     1.5701477      157.51577      89.461944      182.10171      129.71999      176.74917      140.06878      210.88323      20.922002     -17.685175      2566116.5    
    801000   300.09906      0.89453519     0.67696517     1.5715004      157.5667       89.465704      182.16913      202.41794      252.37334      165.61335     -127.18679      196.80668     -21.90835       2568004.7    
    802000   299.70529      0.89336144     0.67945355     1.572815       157.578        89.509877      182.02923      135.96619     -4.8530499     -173.71743      210.49043      152.86289     -175.16944      2567483.6    
    803000   299.49336      0.89272972     0.67650186     1.5692316      157.52618      89.491172      182.12996     -279.282       -107.58272     -282.99401     -95.182869      180.70721     -140.9836       2567522.9    
    804000   299.99287      0.89421865     0.67885097     1.5730696      157.51452      89.490159      182.24562      12.109628     -255.13522     -35.72824      -137.72697      75.16275      -10.274613      2568934.3    
    805000   300.29232      0.89511126     0.67971896     1.5748302      157.62729      89.442848      182.26706     -36.850638     -107.22044      45.394796     -0.017395268   -1.1323476     -63.547632      2569716.6    
    806000   300.47473      0.89565499     0.67632439     1.5719794      157.56429      89.480226      182.15858      81.879578      21.109051     -158.82241     -244.25826      85.754194     -49.230809      2568233.4    
    807000   299.91781      0.89399491     0.67868388     1.5726788      157.59035      89.482615      182.19325     -146.69997     -609.80586     -200.05526      129.36278      132.45405     -145.75504      2569215.7    
    808000   300.07117      0.89445205     0.67786816     1.5723202      157.50534      89.474261      182.19749     -42.993605      218.89712     -205.95259      125.57659      162.14864     -265.72679      2567649.8    
    809000   300.45085      0.89558382     0.67875276     1.5743366      157.56643      89.492674      182.12291     -22.674339     -120.01115     -73.514168     -243.51245      75.85133      -138.45792      2568122.6    
    810000   300.47628      0.89565962     0.68033138     1.575991       157.57798      89.509221      182.12539      343.25416      74.193125      92.332113      150.66306      108.36931      1.8679856      2568820.8    
    811000   299.7325       0.89344253     0.67624956     1.5696921      157.56836      89.547606      182.19177      268.52399     -69.253703      196.56089      61.027705      96.925205      95.469677      2570702.2    
    812000   299.6377       0.89315997     0.67562605     1.568786       157.5547       89.480355      182.15458     -652.53859      141.22921     -205.89906     -49.569928     -10.254104      14.450624      2568024.4    
    813000   299.8032       0.8936533      0.67817196     1.5718253      157.54061      89.500451      182.00257     -39.687029     -324.89109      191.02491      22.068034      261.17152      99.758759      2566228.2    
    814000   299.84278      0.89377127     0.67708057     1.5708518      157.56402      89.500707      182.10765     -149.78724      57.5195        400.94109      128.29003      43.807326     -136.44466      2568098.7    
    815000   300.32914      0.895221       0.67786193     1.5730829      157.56612      89.52703       182.23849      304.02455      70.92681      -198.69739     -11.457525      110.43013     -173.6798       2570733.9    
    816000   299.42653      0.89253052     0.67847953     1.5710101      157.6834       89.501145      182.28005     -525.722       -36.782603     -108.42779      140.79128      87.21558      -217.32087      2572490      
    817000   299.80256      0.89365139     0.67832078     1.5719722      157.54748      89.483316      182.20145      102.76746      75.144706      154.35294      40.919259      117.39999      47.811682      2568652.5    
    818000   300.92737      0.89700422     0.67941067     1.5764149      157.58355      89.45878       182.30204     -223.81953      78.707463     -44.665533      164.28443     -101.32831     -83.716024      2569954.2    
    819000   300.14849      0.89468253     0.6787915      1.573474       157.61446      89.458556      182.24268     -243.35235      433.3953       265.85218     -226.70276      104.61798     -86.963118      2569614.9    
    820000   299.47883      0.8926864      0.67424793     1.5669343      157.49297      89.476387      182.09137      98.743032      67.605164      198.98876     -46.30739      -50.399505     -119.34722      2566013.7    
    821000   299.54352      0.89287924     0.67873272     1.571612       157.47986      89.479122      182.17893     -267.67295      140.64291      157.09551      58.141749      91.527294     -98.453953      2567112.4    
    822000   300.75131      0.89647943     0.6757755      1.5722549      157.43735      89.485558      182.28303      37.329123      157.38199     -152.97121      40.772186      316.49694     -57.570555      2568070.6    
    823000   300.4744       0.89565399     0.67668985     1.5723438      157.53521      89.517046      182.311        10.230573     -277.9355      -55.938896      301.93083     -37.98146      -111.81426      2570965.6    
    824000   300.65368      0.8961884      0.67575214     1.5719405      157.46707      89.519765      182.10332      74.243577     -58.568559      127.05626     -87.95143       114.97303     -247.20361      2567004      
    825000   299.77376      0.89356553     0.67621117     1.5697767      157.57483      89.545743      182.10759     -167.28642      140.46049      45.399685     -208.83435      50.96097      -68.183869      2569566.4    
    826000   299.25982      0.89203359     0.67787073     1.5699043      157.52282      89.485512      182.18753     -74.348698     -373.39494     -34.625192     -66.439056      15.603264      35.989469      2568117.2    
    827000   300.78385      0.8965764      0.67851187     1.5750883      157.54793      89.517992      182.22066      327.41527     -244.21116     -92.956204      119.03542      35.467975     -128.39042      2569926.3    
    828000   299.83525      0.89374884     0.68007074     1.5738196      157.63385      89.509223      182.18215     -293.75259     -108.48481      18.158504     -33.87958       50.384262     -122.84222      2570532.5    
    829000   299.95162      0.8940957      0.67910476     1.5732005      157.58717      89.51795       182.2505      -163.91379      14.171323     -86.889994      86.011097      63.702878     -83.342277      2570986      
    830000   300.17796      0.89477037     0.6758794      1.5706498      157.56441      89.49632       182.14275      55.772683      52.215914     -207.62193     -77.319072      32.149262     -208.42083      2568474.1    
    831000   299.89754      0.8939345      0.67782117     1.5717557      157.56623      89.463232      182.1806      -230.3847      -116.63171      10.654981     -176.17316      16.695989     -223.10878      2568087.8    
    832000   299.92665      0.89402127     0.67623459     1.5702559      157.42702      89.511146      182.25066      332.869       -11.162326     -22.817719     -156.58453      81.503227     -168.82123      2568180.3    
    833000   300.54789      0.89587307     0.67871633     1.5745894      157.5573       89.489225      182.2306      -186.10352     -377.48404     -423.16276      24.085118      177.03315     -47.93566       2569393.3    
    834000   300.11571      0.89458482     0.67765252     1.5722373      157.6143       89.485819      182.16986     -174.61667      94.675479     -43.916553      182.69468      70.211278     -120.19286      2569368.2    
    835000   300.44077      0.89555376     0.67822999     1.5737838      157.56509      89.543385      182.16128     -466.82855      232.32721     -173.86601     -110.61355      82.062487     -63.238469      2570097.4    
    836000   300.25812      0.89500931     0.67687614     1.5718855      157.54173      89.505403      182.0427      -244.35505      114.11557      122.9481       147.39337      65.143518     -31.064911      2566954.3    
    837000   299.64927      0.89319444     0.67633908     1.5695335      157.50854      89.493789      181.999        58.683265     -48.504756      328.41574     -385.92079      49.446919     -82.394742      2565464.5    
    838000   300.39368      0.89541339     0.67663057     1.572044       157.50569      89.504645      182.14882     -73.769442     -354.04959     -143.22945      71.073352     -63.769167     -77.592945      2567841.4    
    839000   299.6623       0.89323329     0.67686131     1.5700946      157.49868      89.516862      182.12344      252.83192     -553.04333      83.653661     -235.98519      246.07218     -75.871819      2567719.7    
    840000   300.70997      0.8963562      0.67759154     1.5739477      157.49959      89.521815      182.01234     -372.61145     -310.56548     -97.722357     -169.7776      -47.306412      124.81819      2566310.1    
    841000   299.48779      0.89271311     0.67546194     1.568175       157.50262      89.532029      182.03683      552.89761      149.28081      66.842049     -198.82445      109.64621     -197.80067      2566997.6    
    842000   298.6484       0.89021107     0.67380628     1.5640173      157.41289      89.516944      182.17734      31.742645     -280.98735     -185.92702      163.63348     -110.7275      -16.399965      2567082.8    
    843000   300.12164      0.8946025      0.6756428      1.5702453      157.52535      89.511938      182.17391      254.98227      295.06859     -4.814714       270.75009      97.442165     -225.24304      2568724.8    
    844000   299.53468      0.8928529      0.67466956     1.5675225      157.58558      89.476796      182.07649     -27.996843     -238.54887      28.840608      3.0157471      157.09681      18.88145       2567324.6    
    845000   299.84354      0.89377353     0.67738986     1.5711634      157.58079      89.472524      182.0072      -249.90935     -167.69816      144.50654     -13.798766     -10.758626     -150.07431      2566147      
    846000   300.0431       0.89436838     0.67700494     1.5713733      157.43059      89.523992      182.0887       80.93439       139.43345      35.124953      194.56015      159.85645     -85.36974       2566324.4    
    847000   299.92763      0.89402418     0.67646694     1.5704911      157.38113      89.508903      182.11209      595.67142      114.10204     -138.36789     -201.8613       83.083702      100.14078      2565415.3    
    848000   299.66498      0.89324127     0.67627736     1.5695186      157.41204      89.547347      182.25677      607.82791      181.92469      207.00397     -265.58349      226.04673     -64.813945      2569060.5    
    849000   298.93136      0.8910545      0.67619516     1.5672497      157.45116      89.534012      182.05307      197.40682      65.932783      58.751551     -45.335353      5.8176458     -220.59334      2566444.7    
    850000   298.89361      0.89094199     0.6753038      1.5662458      157.51385      89.490331      181.96235      179.55548      286.55618      88.802481     -197.137        152.89779     -64.37956       2564935.2    
    851000   300.36723      0.89533455     0.67709996     1.5724345      157.45707      89.495249      182.0381       93.873079      562.32524      306.56995     -125.02229      29.639048      87.433047      2565219      
    852000   300.53022      0.89582038     0.67702179     1.5728422      157.46128      89.568684      182.03569      434.51448      282.12154      53.434599      217.54899      156.1196      -73.661805      2567358.5    
    853000   299.82221      0.89370996     0.67713579     1.5708457      157.46328      89.536547      182.00761      1.511929      -313.3067       144.2041       23.605721     -21.256922     -6.5150743      2566074      
    854000   300.29629      0.89512308     0.67238774     1.5675108      157.50525      89.532359      181.99487     -154.07924     -91.864414      16.670345     -113.95685      71.905149     -25.098476      2566458.3    
    855000   300.29367      0.89511528     0.67740568     1.572521       157.47675      89.501283      182.07733     -115.67629      134.58727     -170.21414     -156.58258      10.520901      37.228062      2566265.6    
    856000   299.15893      0.89173286     0.67617973     1.5679126      157.45197      89.524589      182.06467      67.714802     -92.457038      47.107461     -41.373319      218.26118     -92.770539      2566351.4    
    857000   300.22408      0.89490785     0.6771136      1.5720215      157.42685      89.547378      182.04368     -74.509998     -451.1332      -63.194559      150.66122     -57.740546      66.922218      2566299.1    
    858000   299.50021      0.89275014     0.67731215     1.5700623      157.54389      89.536467      182.009       -108.37912      201.22518      232.89384      4.7706347      1.4715973     -157.50056      2567405      
    859000   299.95074      0.89409308     0.67779254     1.5718856      157.4815       89.559294      182.02119     -457.09668     -20.616361      314.72643      18.582728     -13.014722     -106.44186      2567214.4    
    860000   300.47438      0.89565395     0.67569019     1.5713441      157.54016      89.55431       182.01629     -240.86531     -220.90033      96.269843     -203.34888      130.84298     -219.40137      2567958.7    
    861000   300.41606      0.89548012     0.67310545     1.5685856      157.3937       89.50671       181.99389      335.90797     -184.22012     -78.463564      65.607698      98.696943     -84.473967      2563892.2    
    862000   299.7605       0.893526       0.67473088     1.5682569      157.534        89.501533      182.125       -136.35356      356.20224     -145.04352     -412.25817      170.42944     -18.846399      2567877.7    
    863000   299.85973      0.89382179     0.67603081     1.5698526      157.53019      89.497235      182.13252      369.73241      88.655385      167.53267      60.568745      146.06122      66.941702      2567798.2    
    864000   300.18264      0.89478434     0.67345189     1.5682362      157.38887      89.496341      182.1345      -362.68744      30.603755     -127.26404     -93.810034     -40.363887      31.699845      2565497.1    
    865000   300.34482      0.89526776     0.67834582     1.5736136      157.5101       89.532273      182.09947     -41.746957      79.76202       40.807999     -99.219877      182.11382     -75.083449      2568009.9    
    866000   299.86507      0.89383771     0.67626343     1.5701011      157.46929      89.520325      182.11002      87.485181      31.523249     -13.078603     -84.641489      186.31179     -255.03392      2567150.7    
    867000   299.72206      0.89341142     0.6766578      1.5700692      157.47368      89.542905      182.0004       307.14        -390.10793      71.761643     -114.33465     -43.578685     -78.707357      2566324.1    
    868000   300.20949      0.89486437     0.6777606      1.572625       157.41258      89.53323       181.97477      74.534409     -162.48538     -25.897486      171.27727      204.69355     -58.067717      2564690      
    869000   300.56857      0.89593471     0.67496128     1.570896       157.54581      89.523297      182.0835       0.83763943     255.02478      35.287418     -293.36247      125.03196      48.005942      2568109.4    
    870000   300.43271      0.89552972     0.67693768     1.5724674      157.58503      89.537266      181.99341     -222.54448     -94.126141     -66.445506     -141.32802      187.68514     -31.995681      2567878.4    
    871000   299.60193      0.89305335     0.67556737     1.5686207      157.46825      89.526619      182.06808      149.3391       13.599643     -316.10831      47.500939      127.15515     -140.2451       2566723      
    872000   299.76435      0.89353747     0.6761868      1.5697243      157.36318      89.54701       182.08439      467.71137     -142.76188      58.271501      54.761002      142.28326     -2.7742395      2565824.4    
    873000   300.46363      0.8956219      0.67627139     1.5718933      157.42628      89.503813      182.01346     -163.62823      383.29216     -161.88119     -44.547302      34.255902     -80.200729      2564615.5    
    874000   300.42789      0.89551537     0.67479745     1.5703128      157.4634       89.485202      182.09227      93.964793      213.41402     -297.68289      14.502171      21.058292     -202.70771      2565797.4    
    875000   299.40623      0.89247001     0.67914701     1.571617       157.4848       89.508797      182.07239      364.50416      355.35821      134.77649     -212.55449      13.199308     -231.39126      2566542.4    
    876000   300.39123      0.89540608     0.67411072     1.5695168      157.49443      89.508751      182.1413      -262.93281     -48.356545     -310.96537      25.071999      164.4897       4.4876627      2567669.6    
    877000   300.1964       0.89482533     0.67763057     1.5724559      157.48226      89.511243      182.02992     -38.639068      255.86628     -30.343605      36.761908      170.69651     -117.13315      2565972.5    
    878000   299.8024       0.8936509      0.67676357     1.5704145      157.44496      89.549668      182.06797      146.02033      234.41428      206.26813     -84.562839      22.029124     -191.16709      2567002.4    
    879000   299.77618      0.89357275     0.67691784     1.5704906      157.35636      89.527762      181.94659      262.03124     -205.59723     -103.60546      33.17989      -18.032528     -65.156052      2563220.5    
    880000   299.90609      0.89395999     0.67466515     1.5686251      157.505        89.552273      182.01618      8.1420483     -188.03826     -258.79192     -199.67763      17.903638      61.176871      2567325.5    
    881000   299.27425      0.8920766      0.67675876     1.5688354      157.42135      89.5327        182.03185     -75.538725      245.97084      268.9811      -67.905333      157.3706      -12.665334      2565622.2    
    882000   300.43672      0.89554168     0.67466028     1.570202       157.47439      89.534729      181.99766      211.64771     -102.89859     -262.95109     -183.04867      142.29479     -85.053012      2566062.7    
    883000   299.9907       0.89421219     0.67832106     1.5725333      157.46996      89.509838      181.99664     -5.8285521     -20.791398      3.2949288      41.803964      32.9926       -155.70429      2565262.8    
    884000   299.95065      0.89409282     0.67963543     1.5737282      157.4505       89.54293       182.05783      514.78795      68.52468       158.09685      44.965066      72.399363     -289.82828      2566756.8    
    885000   299.98518      0.89419573     0.6756918      1.5698875      157.47005      89.569687      182.10744     -234.88939      468.98945      26.960997     -85.680455      170.29656     -78.407083      2568542.2    
    886000   300.75236      0.89648256     0.67467489     1.5711575      157.54225      89.481813      181.97471      170.68306      236.17465     -286.62192      120.89072      104.06162     -92.453435      2565327.7    
    887000   300.02018      0.89430006     0.67692183     1.5712219      157.49046      89.510826      182.09153     -175.53863      383.065       -82.703646     -51.639109      111.24007      39.47924       2566962.7    
    888000   299.70039      0.89334684     0.67777856     1.5711254      157.47801      89.526069      182.19157      398.79189     -230.08438     -16.770415      69.401256     -94.500446     -140.49363      2568607.3    
    889000   299.36651      0.8923516      0.67547579     1.5678274      157.37804      89.535846      182.03581      365.60963     -89.255189     -314.74901      84.599244      106.29076     -19.087676      2565062.3    
    890000   299.27723      0.89208547     0.6784638      1.5705493      157.46731      89.550221      182.1218      -95.807235     -500.1354      -58.528506     -49.761477      18.061119      2.5578966      2568141.9    
    891000   300.28485      0.895089       0.67652204     1.571611       157.42195      89.522896      182.0918       135.05457     -16.390597     -99.4512        28.201404      46.211672     -235.14957      2566195.9    
    892000   300.09127      0.89451197     0.67425967     1.5687716      157.42036      89.533672      182.01067     -503.96671     -196.66124     -6.7462049      14.618583      112.96384     -5.9157208      2565335.4    
    893000   300.86657      0.89682298     0.6751593      1.5719823      157.4843       89.514825      182.04572      37.239        -373.66923     -40.74553      -181.34806      173.02214     -116.2015       2566331.2    
    894000   300.28994      0.89510415     0.67856427     1.5736684      157.52183      89.558924      182.02665     -134.84296     -292.67779     -199.29006     -184.28276      192.42642     -90.027176      2567938.4    
    895000   300.34718      0.89527478     0.67759772     1.5728725      157.44662      89.508969      182.22412      241.18465      226.00819      193.13128     -46.704571      28.578651     -140.1891       2568063.4    
    896000   300.05238      0.89439603     0.67626064     1.5706567      157.50136      89.520156      182.19099     -406.33431     -374.49909     -177.48403      8.1664333      206.02876     -156.99773      2568810.2    
    897000   299.20977      0.89188439     0.6741285      1.5660129      157.45342      89.528981      181.99171     -32.813551     -246.21848      57.838765      453.93151      101.37342     -54.472229      2565472.4    
    898000   300.20471      0.8948501      0.67566292     1.570513       157.51877      89.527574      182.01853      168.55484     -195.64277      63.359102     -69.541432      93.19436      -175.37117      2566875.1    
    899000   299.58181      0.89299337     0.67610293     1.5690963      157.53062      89.501179      182.02416      96.648036     -20.150553     -39.276294      252.8487       90.231494     -258.11422      2566390.7    
    900000   299.74278      0.89347317     0.67828363     1.5717568      157.49271      89.489216      182.15185      95.410166      45.480165     -26.701508     -4.0148373      33.773227      19.409369      2567229.8    
    901000   300.07644      0.89446776     0.67914594     1.5736137      157.56147      89.457872      182.05679     -418.79509      236.17862      7.3356918     -133.89133      76.948041     -138.80314      2566111.1    
    902000   299.3933       0.89243147     0.67604697     1.5684784      157.57099      89.488314      182.11248     -75.60808      -255.67222      64.154707      160.26413      340.07312     -35.934418      2567924.7    
    903000   299.70041      0.89334689     0.67635625     1.5697031      157.44519      89.535645      182.1439      -217.06341     -249.3342       51.236937     -21.526353      140.22549     -237.3184       2567674.7    
    904000   300.17904      0.89477361     0.67740509     1.5721787      157.53056      89.564847      182.12428     -338.57857     -386.04416     -81.201131      150.35354     -30.007955     -304.46852      2569628      
    905000   299.43588      0.89255839     0.67733545     1.5698938      157.49769      89.532022      181.97807      210.70462     -196.02459     -77.450598      84.513739      125.80695     -80.171863      2566088.6    
    906000   300.6519       0.89618311     0.67843347     1.5746166      157.47685      89.525973      182.17164      61.74323       248.68879      60.626343     -187.53542     -41.123768     -148.93529      2568304.7    
    907000   299.32478      0.89222721     0.67710769     1.5693349      157.47035      89.524318      182.09683     -231.80153     -105.79792     -215.07235      63.082025      22.866313     -95.899454      2567096.5    
    908000   299.84495      0.89377774     0.67771313     1.5714909      157.54354      89.543935      181.94711      105.87456     -42.704258      258.07772      157.32088      179.26696     -164.959        2566740.3    
    909000   299.58172      0.89299311     0.67715099     1.5701441      157.45217      89.528043      182.03874     -214.04574      44.97276       341.62691     -106.29553      55.597479     -199.01981      2566088.1    
    910000   299.81807      0.89369762     0.67741949     1.5711171      157.51652      89.575343      182.19297     -289.46951     -44.161466      63.266324     -7.7365516      93.273051      78.335849      2570669.2    
    911000   300.3989       0.89542896     0.68082543     1.5762544      157.39379      89.5587        182.01087      331.78028      1.7129808      198.46054      28.021169      270.58077     -203.50038      2565622.2    
    912000   300.06853      0.89444418     0.6771384      1.5715826      157.52507      89.562857      182.07827      1.0437908      108.86316      92.869952     -6.7816752      106.21812     -3.8518982      2568832.2    
    913000   300.0741       0.89446078     0.67733241     1.5717932      157.52939      89.524916      182.11765      69.025207     -57.660596      18.558422     -114.60102      40.775447     -227.89147      2568369.7    
    914000   300.44291      0.89556013     0.67542682     1.5709869      157.3343       89.568524      182.01258      89.32486      -241.99358     -126.28725      285.43521      182.5632      -148.06148      2564957.9    
    915000   300.83573      0.89673105     0.67850024     1.5752313      157.44779      89.508076      182.13767      68.558949     -389.11755     -55.592655     -93.331287      45.049513     -58.009514      2566838.7    
    916000   299.86663      0.89384236     0.67780745     1.5716498      157.41473      89.499564      182.08675      242.09011      319.70695      207.36998     -105.7583       112.30366     -257.32022      2565338.3    
    917000   299.83553      0.89374967     0.67707064     1.5708203      157.45133      89.488295      182.03892      243.66114     -238.02216      212.32906     -145.06465     -47.547535     -151.39733      2564937.8    
    918000   299.98874      0.89420635     0.67691649     1.5711228      157.43076      89.55044       181.97541      180.33101     -56.80717       199.94748     -45.292701      41.265734      62.61524       2565488.2    
    919000   299.62408      0.89311936     0.67541113     1.5685305      157.41427      89.50883       182.12752     -25.780377     -184.62674     -57.096104     -198.19622      72.070476     -52.656713      2566170.8    
    920000   301.24819      0.89796052     0.67510548     1.573066       157.5484       89.542976      182.02351     -186.56894     -5.9601211     -5.8608281     -18.802858      81.713834     -145.52702      2567869.9    
    921000   299.46118      0.89263378     0.6759016      1.5685354      157.44684      89.53376       182.0899       69.897987      233.2564      -117.91568     -203.15243      118.22446     -70.757515      2566886.3    
    922000   299.25768      0.89202719     0.67575643     1.5677836      157.5071       89.535846      182.03559      103.27546     -8.9790726      97.361623      292.19019     -29.281361     -240.23453      2567162.7    
    923000   299.31836      0.89220807     0.67653837     1.5687464      157.44944      89.514391      182.08772      370.61483      61.995007     -55.781545      5.2355922     -36.911126     -76.591049      2566342.6    
    924000   300.01456      0.89428333     0.67918379     1.5734671      157.59185      89.479717      182.0422       23.330747     -84.544365     -57.815054      162.83777      23.804196     -61.755016      2567026.9    
    925000   300.28297      0.89508338     0.67457424     1.5696576      157.4808       89.491378      182.1285      -177.98508     -16.93752      -48.878265      47.864698      42.225109     -102.79312      2566768.7    
    926000   300.24877      0.89498146     0.67598303     1.5709645      157.55517      89.493872      182.23654     -357.30022     -60.634457     -261.24023      124.63952      142.29742     -33.850485      2569575.7    
    927000   300.26285      0.89502342     0.67407466     1.5690981      157.54284      89.502792      182.10867      181.38871     -126.14282      7.7468088      135.15508      59.275873     -135.20996      2567827.7    
    928000   299.16412      0.89174833     0.67705035     1.5687987      157.5242       89.502466      182.00748     -142.75456     -261.9234       129.44393     -60.232672      58.225815     -145.82239      2566087.8    
    929000   300.29112      0.89510768     0.67313519     1.5682429      157.47852      89.472361      182.12601     -221.65818      78.105925      65.490904      188.08254      58.820474     -132.25604      2566151      
    930000   299.35636      0.89232134     0.67654825     1.5688696      157.50332      89.49662       182.11951     -194.40951     -38.748604      15.046092     -88.636873      37.672802     -13.737536      2567159.3    
    931000   299.55257      0.89290622     0.67666604     1.5695723      157.45423      89.506378      182.08684     -100.3289      -261.53864     -132.90774      35.096026      49.521616     -200.36144      2566178.6    
    932000   300.29253      0.89511188     0.67840517     1.5735171      157.50107      89.519196      182.2452       17.679537      72.769298     -175.53417      87.922686      178.45859     -88.122939      2569542.3    
    933000   299.37149      0.89236644     0.67423008     1.5665965      157.43518      89.51666       182.09716     -22.275075      24.690364      55.224313      2.7951003      99.130219     -38.278401      2566308.4    
    934000   299.46975      0.89265935     0.67563452     1.5682939      157.4758       89.54353       181.98492     -70.711226      198.62435     -104.41707      142.37393      220.38543     -141.06961      2566158.3    
    935000   299.67003      0.89325633     0.67633937     1.5695957      157.48168      89.510927      181.95005      627.73766      429.28559      289.44218      116.11444      64.216676     -129.28266      2564828.2    
    936000   299.62664      0.89312701     0.67718527     1.5703123      157.34793      89.549834      182.03397      70.99714       183.13278      2.5215718     -148.35387      115.98098     -37.669415      2564946.2    
    937000   298.97484      0.89118412     0.67694084     1.568125       157.46845      89.520128      182.12736     -181.28071     -150.57222     -321.57985      9.7502255      43.683293     -126.6389       2567375.7    
    938000   300.18601      0.89479438     0.67347361     1.568268       157.49859      89.517599      182.0002       248.73172      284.56898      269.64193     -68.777813      241.27979      82.464279      2566001.9    
    939000   299.33967      0.89227159     0.67587474     1.5681463      157.4548       89.524583      182.01414      315.82342     -138.00589     -106.07226      270.25998      24.232638     -168.12121      2565685      
    940000   300.99217      0.89719738     0.67505415     1.5722515      157.33099      89.495364      181.95206      313.83368      136.92024     -159.45421     -11.285029      82.895251      128.473        2561956.7    
    941000   299.85282      0.8938012      0.67730019     1.5711014      157.4269       89.547313      182.05382      475.72609      164.13843     -46.310224     -182.42573      226.10073      3.9368924      2566441      
    942000   299.7399       0.89346459     0.67892562     1.5723902      157.48235      89.500732      182.05734     -350.61531     -322.79687      63.31142       13.849807     -55.470846      25.02814       2566059.2    
    943000   300.45464      0.89559509     0.67901846     1.5746135      157.56122      89.524544      182.10473     -112.04599      9.9302489     -0.20503188    -54.501092     -153.85764     -107.21422      2568695.9    
    944000   299.58002      0.89298803     0.67702619     1.5700142      157.47493      89.531929      182.05789     -394.41511     -250.75201     -284.01562     -70.837193      187.75286     -80.1268        2566840.4    
    945000   299.84891      0.89378955     0.67639697     1.5701865      157.49         89.564697      182.03185      90.141522     -296.54856     -67.255159      56.883972      172.07194     -186.65817      2567658.3    
    946000   300.39354      0.89541298     0.67654967     1.5719627      157.53542      89.559124      182.08043      69.341168      42.120182     -124.44615      147.96417      85.738158     -273.69097      2568924.4    
    947000   299.96045      0.89412203     0.6782347      1.5723567      157.43109      89.563415      182.12464     -372.43782     -194.19428     -261.33033      61.035599      152.42606      207.55025      2567969.5    
    948000   299.64485      0.89318128     0.67841583     1.5715971      157.50544      89.565147      182.01795      166.28884     -36.983758      13.334744     -25.327422      90.660949     -212.12154      2567726.8    
    949000   299.88414      0.89389456     0.67572087     1.5696154      157.41439      89.541981      182.11381     -242.80628     -307.28545     -194.21433     -155.85376      24.062116      19.561585      2566929.9    
    950000   300.5351       0.89583494     0.674526       1.5703609      157.35871      89.512086      182.14094      105.07844     -186.48824     -201.81338      21.161403     -5.2058109     -268.84586      2565547.5    
    951000   300.528        0.89581376     0.67704299     1.5728568      157.5062       89.491163      182.13951     -68.168962      222.25597     -376.84697     -116.83877      228.14695     -201.97277      2567331.6    
    952000   300.80745      0.89664675     0.67524905     1.5718958      157.51839      89.517562      182.00971     -335.72691     -33.159677     -55.471338     -198.49832      47.012544     -13.875823      2566457.4    
    953000   300.55803      0.89590328     0.67881067     1.574714       157.4541       89.569944      181.98668      530.81272     -21.99313       272.60617      174.89154      171.70528     -101.20253      2566586.3    
    954000   299.67174      0.89326143     0.67688971     1.5701511      157.49383      89.531356      182.09998     -56.204071     -78.857383      98.501951      16.040348      112.98041     -173.04425      2567725.5    
    955000   300.71027      0.89635709     0.67621894     1.572576       157.47642      89.476705      182.1585      -70.59039       72.025568     -123.49964      84.989486      172.20786     -94.586126      2566699.1    
    956000   299.53082      0.89284138     0.67773201     1.5705734      157.44894      89.539797      182.13764      139.84643      101.75025     -229.02189      147.03037      59.731831      49.114656      2567766.6    
    957000   300.16684      0.89473722     0.6780156      1.5727528      157.36676      89.568359      182.06289     -412.20314      41.356235      112.85639      91.45474       130.82427     -23.200998      2566191.5    
    958000   299.61459      0.89309107     0.67517669     1.5682678      157.44508      89.556392      182.0095       436.49395     -110.61574      279.27774      179.42953      85.681595     -334.94499      2566372.8    
    959000   300.2634       0.89502505     0.67484189     1.5698669      157.47233      89.545315      182.04232      57.065665     -7.5294756     -14.507475     -294.12315      167.16256     -179.85598      2566962.4    
    960000   299.42738      0.89253304     0.67828103     1.5708141      157.5104       89.52125       182.09776      236.71083     -43.947867     -25.911526     -110.59802      9.4495671     -137.13965      2567674.4    
    961000   299.94542      0.89407722     0.67651643     1.5705936      157.50659      89.52156       182.04034      45.941338     -104.35903      274.65483      62.176343     -0.1027928     -59.763763      2566811.6    
    962000   299.93963      0.89405996     0.67490655     1.5689665      157.39826      89.557692      181.93216     -41.250973     -176.56817      341.1147      -106.91809      1.5230297     -27.512812      2564556.7    
    963000   299.40515      0.89246679     0.67712512     1.5695919      157.46381      89.542315      182.09456     -249.32614     -117.46266     -101.445        36.122394      121.15597     -87.726265      2567473.8    
    964000   300.78694      0.89658561     0.67787027     1.5744559      157.37309      89.547471      182.22669     -43.514821     -301.32504     -323.02757      75.003261      97.162218     -168.1836       2568004.4    
    965000   299.63759      0.89315963     0.67686065     1.5700203      157.42158      89.503158      182.1096       252.27438      240.27575      141.37087      85.000981      119.78712     -159.17931      2565874.9    
    966000   301.11565      0.89756543     0.67480753     1.572373       157.46921      89.492829      182.02597      541.04913     -58.691011      191.73689      140.79666      123.92749     -75.385785      2565176.5    
    967000   299.4957       0.89273668     0.67272869     1.5654654      157.48525      89.538763      182.04812     -125.1651      -296.31215      58.209345      358.00188      24.665446     -73.955784      2567066.7    
    968000   300.47672      0.89566091     0.67812902     1.5737899      157.51528      89.508647      182.11366     -225.77772     -114.17603      41.703118      33.746401      31.443786     -82.006745      2567616.7    
    969000   300.511        0.8957631      0.67690761     1.5726707      157.44251      89.523166      182.18841     -92.078702     -61.985139     -323.93038      109.5313      -176.19404     -181.7804       2567900.4    
    970000   299.84936      0.89379087     0.67857513     1.572366       157.48169      89.529281      182.27478     -75.785353     -189.52611     -254.66985      26.539618      0.77551701     56.367001      2569932.8    
    971000   300.33919      0.89525096     0.67813892     1.5733899      157.4741       89.548459      182.07489     -320.42866     -392.30716     -154.52716      86.934129     -29.033491      90.081001      2567540.5    
    972000   300.30035      0.89513519     0.6765233      1.5716585      157.48024      89.520605      182.04459     -16.116003      263.25941      134.17339      17.909633      51.62119       57.557457      2566414.8    
    973000   299.6959       0.89333344     0.67644186     1.5697753      157.50218      89.496549      182.11449     -113.51577      214.44685      31.682589     -63.276066      142.13232     -167.99497      2567068      
    974000   299.20732      0.8918771      0.6770792      1.5689563      157.46818      89.545344      182.07473     -237.91586      228.3131      -17.232396      44.757222      332.83919     -126.48717      2567352.5    
    975000   299.49034      0.89272072     0.67805402     1.5707747      157.50774      89.547282      182.12302     -210.59204     -452.73321      18.265957     -25.984577      48.712003     -129.89964      2568734.2    
    976000   300.36439      0.8953261      0.67666873     1.5719948      157.4392       89.495692      182.07297     -7.1673247      38.496886     -38.630289     -75.127959      24.05537       38.347081      2565431.9    
    977000   299.51459      0.89279299     0.67744243     1.5702354      157.48237      89.526905      182.06744     -72.873155     -105.80416      61.945869     -35.39819      -109.2561      -219.59091      2566952.3    
    978000   300.84966      0.89677257     0.6751204      1.571893       157.43057      89.495963      182.14818     -86.380624     -80.991494      199.85629      226.58712     -148.35784     -212.55855      2566358.6    
    979000   300.42242      0.89549905     0.67361479     1.5691138      157.41095      89.507962      182.04143     -35.523597      51.133602      55.277327     -55.723129      16.890133     -63.246234      2564878.8    
    980000   299.84851      0.89378834     0.67944985     1.5732382      157.50346      89.54223       181.96394     -220.9272      -327.22152      117.84971     -213.78046      23.036221      34.22154       2566275.9    
    981000   300.21888      0.89489236     0.67952568     1.574418       157.43844      89.533135      182.05081     -111.38529     -140.17739      132.55425     -103.00731      108.21527      114.32731      2566180.5    
    982000   300.17071      0.89474875     0.67766516     1.5724139      157.41623      89.505171      182.18066      250.0923      -178.52268      194.06566      90.772895      117.98004     -31.505487      2566846.5    
    983000   299.6512       0.89320021     0.67743533     1.5706355      157.46659      89.534745      182.07896      295.16351     -58.590514     -282.38842     -149.59915      175.23234     -1.7711865      2567082.2    
    984000   300.27493      0.89505941     0.67746429     1.5725237      157.42575      89.499785      182.03662     -467.86636     -255.38064     -33.524975      338.76021      5.4184285      16.7328        2564817.9    
    985000   300.13841      0.89465249     0.67948761     1.5741401      157.53376      89.504059      182.06888     -61.325135      184.76505     -44.780385      101.35859      154.8562      -106.36272      2567154.9    
    986000   299.68125      0.89328979     0.67883602     1.5721258      157.52552      89.529209      182.09209      110.12345     -91.84764      -35.81572      -6.5809537      237.53712     -127.78347      2568069.4    
    987000   299.62843      0.89313232     0.67757833     1.5707106      157.45883      89.539317      182.13405     -144.03507      11.25268      -187.51697     -48.594966     -45.826934     -24.593252      2567863.5    
    988000   300.12534      0.89461353     0.67826936     1.5728829      157.42437      89.571646      182.14069      24.225797     -317.76129      121.51101     -244.53448      213.71288     -115.12684      2568322.1    
    989000   299.58869      0.89301388     0.67981152     1.5728254      157.39546      89.550001      182.03246     -298.90144      153.34457      227.62874     -396.94144      82.658625     -166.20544      2565704.4    
    990000   300.24021      0.89495594     0.67658236     1.5715383      157.36663      89.573551      182.08938      266.66233     -246.95721      188.22705      267.43736      52.94467      -106.69299      2566711.4    
    991000   300.56838      0.89593414     0.67616074     1.5720949      157.43132      89.544031      182.00077     -47.783273      231.69305     -120.95472      97.174283      197.37853      67.322766      2565671.2    
    992000   300.00116      0.89424337     0.67661495     1.5708583      157.51083      89.526602      182.0088       87.130348      29.539514     -54.18361      -29.010546     -4.1751794     -92.839631      2566580.5    
    993000   299.11324      0.89159665     0.6755683      1.567165       157.45083      89.514146      182.06105      157.13938     -291.90103      153.96402     -179.03875      60.893941     -48.283526      2565982.4    
    994000   300.12192      0.89460334     0.67897425     1.5735776      157.35619      89.553599      182.16138     -32.499516      10.896125      3.8309033      190.05168      198.4013      -144.01157      2566984.1    
    995000   299.955        0.89410577     0.67686247     1.5709682      157.42949      89.504982      182.04363      183.5852       11.309384      255.88806     -122.5018       205.00844     -92.918694      2565126.6    
    996000   299.37834      0.89238685     0.67717578     1.5695626      157.47428      89.514484      182.11156      59.20626       181.75863     -171.2081      -83.237729      114.62377      15.259711      2567086.3    
    997000   301.07117      0.89743285     0.67845896     1.5758918      157.43777      89.552595      182.07468      119.81298     -319.69615      272.24795      278.17982      101.03969     -48.541395      2567063.7    
    998000   299.78317      0.89359358     0.67491922     1.5685128      157.52478      89.537101      182.0342       23.263738      224.62323      171.43623      98.382884     -44.579747     -127.93594      2567467.2    
    999000   300.15128      0.89469085     0.67809312     1.572784       157.45721      89.492532      182.08035      246.74556     -470.32194     -16.161436      161.09026      135.4408      -43.940538      2565738.6    
   1000000   300.34433      0.89526629     0.67737277     1.5726391      157.45924      89.529825      182.19732      59.092292     -117.29497     -84.812033     -103.18378     -81.424122     -139.57823      2568490      
   1001000   300.74033      0.89644667     0.67480735     1.571254       157.45594      89.539211      182.02421     -89.698596      38.421602      28.431667     -94.49985       65.141326     -30.551673      2566264.8    
   1002000   299.94345      0.89407133     0.67486853     1.5689399      157.47661      89.513191      182.04486     -198.43532     -159.68756     -50.475719     -76.987489      60.357905     -191.25718      2566146.9    
   1003000   299.53924      0.89286647     0.67832347     1.5711899      157.38398      89.532389      182.22452     -53.395827      78.039308      31.950034      203.43425      15.66617      -38.050331      2567719.1    
   1004000   299.90043      0.89394312     0.67551859     1.5694617      157.44713      89.515061      182.08994      223.1643       78.154432      99.21041      -114.70807      42.393639     -1.9646883      2566355.5    
   1005000   299.8994       0.89394005     0.67507462     1.5690147      157.49087      89.50969       182.0539       229.00164      290.82859      82.688172      95.029831      58.304429     -4.5977779      2566406.2    
   1006000   299.47958      0.89268864     0.678195       1.5708836      157.43476      89.529326      182.25334     -42.617737     -340.48075      67.445195      99.774387      255.17275     -146.95902      2568865.9    
   1007000   300.59951      0.89602694     0.67656948     1.5725964      157.4789       89.533658      182.12502     -157.00719     -454.15938     -89.605475     -103.60425      20.349971     -63.46282       2567901.2    
   1008000   299.337        0.89226364     0.67562764     1.5678913      157.436        89.559101      182.06941     -31.252922      15.531992     -124.72721     -25.250813      150.73369     -49.333866      2567147.2    
   1009000   300.14692      0.89467785     0.67809816     1.572776       157.42773      89.57407       182.14249      342.44028      35.977876      99.505115      74.203095      57.484631     -52.144743      2568471.9    
   1010000   299.41444      0.89249446     0.67703059     1.569525       157.45013      89.539825      182.08302     -141.0622      -194.50482      33.039425     -90.768179      159.40942     -76.9732        2567016.8    
   1011000   299.85718      0.8938142      0.67724056     1.5710548      157.54192      89.516098      182.05013      149.37136     -172.60384     -64.973392     -81.882808      170.38932     -200.4833       2567368.9    
   1012000   300.12304      0.89460667     0.67463465     1.5692413      157.42878      89.522098      182.00832     -315.08585      215.14664     -64.988831      254.99022      133.47925      63.269796      2565107.7    
   1013000   300.13388      0.89463898     0.67996287     1.5746019      157.48255      89.554241      182.13543      76.782514     -37.620433      63.45901       190.68987      252.95969     -69.098387      2568697.9    
   1014000   300.13065      0.89462934     0.67667543     1.5713048      157.4864       89.540936      182.10182     -176.61091     -60.529214     -163.47999      193.34634      181.06311      41.742324      2567905.1    
   1015000   300.2973       0.89512609     0.67506469     1.5701908      157.4421       89.559378      182.02619      235.42824      41.647167      10.74144       204.09861      292.87094     -58.803736      2566645      
   1016000   299.67661      0.89327596     0.6751641      1.5684401      157.38297      89.511092      181.84935      386.33459      134.99285     -232.95247     -277.36576      99.166149     -202.88451      2561806.6    
   1017000   300.57205      0.89594509     0.67619905     1.5721441      157.34446      89.527416      181.93664      519.64751      171.22195      242.16265      136.72285      25.022708     -223.2118       2562876.5    
   1018000   299.35982      0.89233166     0.67709359     1.5694253      157.39881      89.538428      182.10057     -83.855421     -90.330915      122.18505     -179.32947     -15.080467     -61.080262      2566387.4    
   1019000   299.3095       0.89218166     0.67843776     1.5706194      157.47285      89.515887      182.12878     -166.97989      49.631562      38.30586       95.697472     -7.8973482     -9.6207048      2567345.9    
   1020000   299.45089      0.89260311     0.67796029     1.5705634      157.50853      89.524626      182.1258      -449.49279      27.080451      238.23415      161.14686     -22.290504     -162.76702      2568136.3    
   1021000   300.58756      0.89599132     0.67750188     1.5734932      157.51098      89.535793      182.04388      3.0671622     -298.79382      27.453679      58.082029      59.308799     -70.933576      2567341.2    
   1022000   299.68049      0.89328752     0.67397523     1.5672627      157.47646      89.522345      181.96894     -155.95273      126.41791      363.03181     -178.71357      153.61677     -296.20347      2565336.7    
   1023000   300.28202      0.89508055     0.67727901     1.5723596      157.48014      89.520483      182.12336      71.958576      234.45675     -59.174187     -4.8172427      30.370685     -63.574118      2567520.1    
   1024000   299.57387      0.89296971     0.67656707     1.5695368      157.44428      89.513783      182.12205      88.33456       77.387998     -37.846015      0.050534172    147.75771     -124.18544      2566725      
   1025000   300.7021       0.89633274     0.67487103     1.5712038      157.49882      89.494636      181.87251     -318.31345     -176.16838      132.11931     -24.985801      121.01585     -13.409899      2563547.4    
   1026000   299.44721      0.89259214     0.67633999     1.5689321      157.46342      89.477048      182.00084      309.45687      293.12091      240.67322      25.083898      69.932872     -65.372065      2564275.8    
   1027000   299.99026      0.89421088     0.67694652     1.5711574      157.47043      89.536666      182.11653     -166.98902      72.50465       226.97311      152.74343      11.847995     -187.02527      2567729.7    
   1028000   300.034        0.89434125     0.6781416      1.5724829      157.52123      89.49997       182.13008     -17.108666      258.85973      11.68344      -104.38825      80.145292     -174.4578       2567696.4    
   1029000   299.97601      0.89416839     0.67589939     1.5700678      157.54097      89.515986      182.08435     -177.33135     -47.802966     -199.80485     -231.44176      61.118769      113.26938      2567832.7    
   1030000   300.25139      0.89498925     0.67484743     1.5698367      157.50005      89.559515      181.98912     -104.0379      -188.56514      11.37017       200.0981       144.53681     -153.90012      2567070.8    
   1031000   300.33549      0.89523992     0.67545483     1.5706948      157.36483      89.540565      182.05889     -90.840339     -237.33728      37.691386      23.363725      269.13192     -79.464659      2565307.3    
   1032000   299.64277      0.89317508     0.67826779     1.5714429      157.42212      89.546734      182.11692      116.60959      57.136594     -158.72014      112.88732     -16.742154     -128.22463      2567236.2    
   1033000   300.26633      0.89503379     0.67864829     1.5736821      157.524        89.53987       182.03798     -189.43945      8.6832826      10.176568     -87.373406      54.549327     -154.37419      2567587.1    
   1034000   300.1831       0.89478568     0.67487849     1.5696642      157.4808       89.504171      182.02018      186.696        377.10743      14.59746       30.088605     -91.556073     -118.30105      2565608.6    
   1035000   300.30101      0.89513715     0.67398283     1.56912        157.41769      89.494461      182.12239      391.46507     -33.510064      79.572287     -77.558158      137.20745      5.6023012      2565742.3    
   1036000   299.49715      0.892741       0.67691769     1.5696587      157.45364      89.550431      182.19369     -329.19076     -180.46483      43.4867       -317.27476      159.26319     -196.88045      2568938.5    
   1037000   300.2025       0.89484351     0.67670432     1.5715478      157.47121      89.539226      182.11734      279.23006      252.75011      198.15387      111.81525      208.29478     -117.92344      2567827.1    
   1038000   300.37681      0.89536311     0.67778046     1.5731436      157.45888      89.50125       182.09422      197.69254      236.79873      141.10843      27.264163      105.22748     -201.89131      2566211.3    
   1039000   300.1443       0.89467003     0.67919498     1.573865       157.46064      89.539101      182.05031      84.205934     -41.121819     -170.29589      160.1925       218.31258     -239.18345      2566706.2    
   1040000   300.16888      0.89474332     0.67975424     1.5744976      157.47889      89.503427      182.20623      5.8802773      321.30918     -98.034589     -202.46016      232.72486     -118.30429      2568178.6    
   1041000   299.70896      0.89337237     0.67849772     1.5718701      157.4385       89.506863      182.19715     -67.655762      395.72248     -103.86136      12.836315      149.19196     -43.039523      2567490.6    
   1042000   299.89089      0.89391468     0.67672095     1.5706356      157.48948      89.531734      181.97785     -231.96749     -226.22039      33.487226     -139.39875      22.031819     -113.57783      2565943.3    
   1043000   299.92727      0.89402313     0.67843628     1.5724594      157.50136      89.50485       181.99021      1.5502147     -180.38814     -79.174597      31.051634      42.94111      -128.63696      2565540.6    
   1044000   300.26006      0.8950151      0.67487862     1.5698937      157.37199      89.545478      182.10102     -110.6247      -243.17465      29.079524     -113.79582      165.57259     -345.92307      2566158.5    
   1045000   299.69091      0.89331858     0.6751394      1.568458       157.30803      89.51691       182.13677      447.30448      289.47544      41.080712     -52.743305      213.67057     -105.31889      2564800.5    
   1046000   300.43331      0.89553153     0.67607069     1.5716022      157.59936      89.513497      182.08297     -101.16173      206.55753      44.372286     -4.6013752      109.76463      122.03651      2568693.7    
   1047000   300.21756      0.89488843     0.67658719     1.5714756      157.48028      89.524728      182.064       -10.98199       361.26194      260.06431      143.76315      208.89902     -148.1271       2566807.3    
   1048000   299.78783      0.89360748     0.6768471      1.5704546      157.43959      89.524943      182.19288     -211.43373     -64.679885     -332.32752      205.94935      113.65512     -103.35817      2567966.8    
   1049000   299.76827      0.89354917     0.67620354     1.5697527      157.44316      89.52584       182.20361      111.58134      26.424948     -182.43654      234.90674      52.280671     -217.58349      2568202      
   1050000   299.5729       0.89296681     0.67722649     1.5701933      157.55254      89.496571      182.02964      335.71136      148.70634     -46.91482      -159.56536      86.767588     -201.16871      2566692.9    
   1051000   300.05144      0.89439326     0.67781071     1.572204       157.51377      89.487214      182.07516     -33.184234      4.4037664      110.82793     -137.07597      222.27048     -144.72635      2566434.6    
   1052000   299.61477      0.89309161     0.67710726     1.5701989      157.46746      89.498212      182.20802      153.58607      359.88683      66.902844     -7.6572937      52.611949      132.21885      2567867.9    
   1053000   299.54565      0.89288559     0.67725912     1.5701447      157.50847      89.527132      182.19832     -3.4697932     -53.318152      68.684225      36.886752     -20.800953     -32.719125      2569229.8    
   1054000   300.60081      0.8960308      0.67477994     1.5708107      157.46599      89.578383      182.13491     -67.702325     -340.69332      113.72634     -51.203593      115.19624      51.357728      2569112.9    
   1055000   300.46853      0.89563649     0.67527364     1.5709101      157.44552      89.530484      182.09354      238.46396      518.37359      176.84721     -77.17172       136.46133      149.07872      2566822      
   1056000   300.40327      0.89544196     0.67850441     1.5739464      157.46783      89.553641      182.16667      75.905171     -359.8448       2.6163667      4.6049177      90.745708     -23.16666       2568881.2    
   1057000   300.28199      0.89508048     0.67650396     1.5715844      157.55796      89.5145        182.05138      185.16447     -429.3604      -314.99918     -73.927706      229.42923     -109.73929      2567602.1    
   1058000   300.05906      0.89441596     0.67853705     1.572953       157.55219      89.496878      182.13096     -197.81094     -37.002683      47.245612      98.258845      75.857438     -70.163965      2568124.8    
   1059000   299.59612      0.89303602     0.67988973     1.5729257      157.55504      89.535108      182.24691     -188.99596      45.496464     -7.8684834      108.18405     -32.423441     -192.44968      2570903.9    
   1060000   299.4246       0.89252475     0.67755479     1.5700795      157.46831      89.547924      182.14612      125.74191      250.11679     -55.91684       206.90375      265.69918     -169.31174      2568435.2    
   1061000   300.75671      0.89649551     0.67795235     1.5744479      157.49947      89.614485      182.1121       408.29322     -314.0453       134.62762     -41.985624      76.024576     -238.02735      2570372.9    
   1062000   300.22374      0.89490685     0.67489256     1.5697994      157.45675      89.551323      182.26307     -180.85415     -59.652822     -287.72798      89.938551     -7.9908667      109.68856      2569993.2    
   1063000   299.78552      0.8936006      0.67574501     1.5693456      157.40309      89.501857      182.01246     -174.06974     -225.20407     -53.659907      87.686496      56.98526       213.52296      2564167.7    
   1064000   300.19777      0.89482942     0.67685626     1.5716857      157.51901      89.51703       182.07316      68.468866     -299.94049     -17.956525     -122.87847      122.47977      26.536282      2567346.9    
   1065000   298.9382       0.89107489     0.67779736     1.5688723      157.49589      89.502268      182.20246      9.9290881      61.603886      44.741956     -30.688627      55.796304     -66.486489      2568369.4    
   1066000   299.18678      0.89181585     0.67711513     1.568931       157.48776      89.560492      182.20254     -109.67894     -167.06289      27.880422      70.141782      105.55361      13.495461      2569908.7    
   1067000   299.49884      0.89274605     0.67623696     1.568983       157.53257      89.527901      182.02403      416.22461      38.734198      116.66582      180.05999      300.21764     -65.661587      2567186.9    
   1068000   299.98984      0.89420963     0.67816283     1.5723725      157.56071      89.510714      182.22871     -140.54951      155.27405      158.19625     -91.116529      100.91883     -150.97036      2570039.2    
   1069000   299.76302      0.89353353     0.68089214     1.5744257      157.5803       89.565957      182.28489     -232.58575     -125.73951      76.578977     -207.04294      102.46225     -258.50049      2572737.9    
   1070000   299.93066      0.89403321     0.67786211     1.5718953      157.59381      89.526905      182.18377     -285.81674      28.246004     -37.587767     -248.38047      30.811516     -181.12093      2570409.9    
   1071000   299.52892      0.89283571     0.67755952     1.5703952      157.46005      89.512105      182.08257     -93.6012       -117.45837      200.2827      -119.75723      58.709142     -104.57194      2566377.4    
   1072000   300.11578      0.89458503     0.67558375     1.5701688      157.40809      89.522928      182.11715     -171.12512     -251.69249      255.6835      -90.721225      211.92484     -139.58716      2566328      
   1073000   300.07822      0.89447308     0.67632154     1.5707946      157.48874      89.508311      182.09778      9.4922479     -45.424803     -34.767058      22.849373      161.63419     -193.36772      2566950.6    
   1074000   299.88056      0.89388388     0.67982316     1.573707       157.54297      89.47772       182.24714      68.251855     -147.43954     -110.76613      208.79239      248.32613     -35.358865      2569062.5    
   1075000   299.4017       0.89245649     0.6786511      1.5711076      157.51511      89.54608       182.14495     -221.11917     -163.07141      40.034253      168.76029      210.70742      140.23897      2569129.1    
   1076000   300.25035      0.89498615     0.67763133     1.5726175      157.49307      89.518999      182.31386      35.936713      126.22515     -86.382452     -164.11941      69.617866     -75.901481      2570374.1    
   1077000   300.19635      0.89482519     0.67919798     1.5740232      157.46631      89.549125      182.15053     -443.35634     -246.95274     -127.97424      168.88971      95.759931     -59.325109      2568499.3    
   1078000   300.1598       0.89471625     0.67517041     1.5698867      157.46233      89.505727      182.09382      331.83944      46.698359      154.74331     -162.65681      147.23238     -100.41901      2566390.3    
   1079000   300.14148      0.89466162     0.67903191     1.5736935      157.54451      89.506685      182.23474      276.98599     -23.580058      85.170663      85.349769      147.23098     -87.112281      2569744.3    
   1080000   299.29715      0.89214486     0.67615203     1.5682969      157.53856      89.503584      182.11167     -317.22061     -498.41492     -35.727887      59.520827      142.81814     -207.09859      2567823      
   1081000   299.73451      0.89344853     0.67511802     1.5685665      157.49147      89.519199      182.04147      95.786514     -80.752882     -93.434633     -12.040448      83.247502      34.887122      2566513.6    
   1082000   300.24888      0.89498176     0.6776075      1.5725893      157.44782      89.528916      182.20621     -163.01923     -324.82175      54.248134      145.49333      74.466778     -160.77802      2568402.9    
   1083000   299.72491      0.89341991     0.68280633     1.5762262      157.54537      89.539245      182.33837     -266.22825      180.09416      39.506717      24.314946      188.17031     -151.04816      2572155      
   1084000   299.98127      0.89418407     0.67744111     1.5716252      157.66819      89.529024      182.21755      19.543616      155.04708      102.74356     -206.98959      73.273675     -92.810846      2572161      
   1085000   299.82569      0.89372033     0.67518373     1.5689041      157.47231      89.521968      182.13567     -48.465891      8.356376       78.179803      264.16596      211.01786     -169.25073      2567608.6    
   1086000   300.07433      0.89446146     0.67441162     1.5688731      157.49115      89.472611      182.16605     -294.21543     -140.80219      92.93006      -144.59938      58.049206     -205.5421       2566928.2    
   1087000   300.14927      0.89468484     0.67695249     1.5716373      157.49679      89.507421      182.10735     -194.29597      42.366803     -20.02478       227.16128     -34.584507      20.544869      2567191.3    
   1088000   300.34388      0.89526493     0.6747609      1.5700258      157.5215       89.520768      182.05698      35.750569     -287.47596     -9.0314163     -131.22092      188.41942     -92.294708      2567266.5    
   1089000   299.34959      0.89230118     0.67711864     1.5694198      157.51487      89.538848      182.05284      90.991515     -9.8630691      99.202272      150.10908      167.05483     -122.00825      2567618.6    
   1090000   299.92346      0.89401175     0.67841917     1.5724309      157.4901       89.561659      182.14936      215.41787     -349.66351      215.96023      15.541644      81.854742     -288.39069      2569230.2    
   1091000   299.59336      0.8930278      0.6775606      1.5705884      157.50018      89.548741      182.32006      325.86064     -412.42641     -201.46652      109.3839       86.753673     -289.0257       2571431.7    
   1092000   299.61551      0.89309381     0.67607127     1.5691651      157.45179      89.554289      182.18937     -41.204897      355.41963     -92.412292     -128.06265     -7.1471469     -240.35145      2568958.2    
   1093000   299.61039      0.89307856     0.67828015     1.5713587      157.45603      89.531304      182.09902     -206.48705     -129.7157      -58.73405      -179.65983     -86.792416      83.289414      2567094.3    
   1094000   300.05109      0.89439221     0.67374011     1.5681323      157.43505      89.468151      182.06466     -78.25461      -145.0611      -167.8534      -52.28603       26.828526     -19.699853      2564457.7    
   1095000   300.31037      0.89516507     0.67850362     1.5736687      157.49521      89.541792      182.01479      250.32688      279.74648      10.914799     -230.48703      24.528793     -43.839337      2566846      
   1096000   300.3112       0.89516753     0.67695376     1.5721213      157.48025      89.513041      182.19803      363.40373      457.47431     -17.555153      57.294823      147.52272      131.47512      2568361      
   1097000   300.01831      0.89429448     0.67770601     1.5720005      157.51347      89.496505      182.25695      440.24295      174.54561      131.65155     -61.392745      91.246581      10.407013      2569258.8    
   1098000   301.07558      0.897446       0.67791712     1.5753631      157.42565      89.526996      182.2192       346.20654      246.46668      182.1118      -36.206096     -56.777478     -3.5198693      2568169.2    
   1099000   300.05718      0.89441036     0.67684506     1.5712554      157.53388      89.520275      182.06246      170.43676      302.06986      65.767155     -256.30539     -22.792108     -119.3165       2567531.5    
   1100000   300.17682      0.89476696     0.67760026     1.5723672      157.41329      89.470602      182.14987     -89.444596     -134.93869     -9.6671451     -93.950121     -44.569181     -57.482973      2565373.6    
   1101000   299.74308      0.89347408     0.67822016     1.5716942      157.44859      89.5559        182.25857     -385.26731     -199.32114     -36.52497       217.27638      77.62518       101.26282      2569927.9    
   1102000   299.73391      0.89344676     0.67746588     1.5709126      157.58383      89.549777      182.12956      25.92404       13.308442     -99.980896      178.81881      115.55168     -103.45405      2570138.9    
   1103000   300.15184      0.89469253     0.67693579     1.5716283      157.52319      89.498679      182.11985     -110.87588      286.11472      195.93467      18.011805      54.512309     -91.99471       2567546.9    
   1104000   299.40101      0.89245445     0.67422033     1.5666748      157.50904      89.503666      181.98473      29.336402     -199.47591      11.016607     -127.18003     -78.845781     -253.18073      2565554.5    
   1105000   300.2343       0.89493832     0.67778349     1.5727218      157.54369      89.529661      182.12635      18.438643     -582.08578      9.132524       139.24627     -102.76959     -58.53817       2568861.8    
   1106000   300.11049      0.89456926     0.67785036     1.5724196      157.43775      89.53707       182.13432      137.10391      249.90857      119.46629     -247.51984     -91.401674     -99.362505      2567459.1    
   1107000   299.6959       0.89333345     0.67694329     1.5702767      157.60271      89.534254      182.2199       56.935319     -122.91396      10.199362     -307.46544     -25.470587      17.14173       2571276      
   1108000   301.40837      0.89843799     0.6769775      1.5754155      157.49049      89.494945      182.11699      108.10336      27.550312      64.872509     -23.656236      155.93445     -147.93137      2566866.6    
   1109000   299.72832      0.89343008     0.67701009     1.5704402      157.42166      89.52399       182.10193     -113.79308     -489.80362      235.79272     -272.71383      147.57864      87.428671      2566365.2    
   1110000   299.65439      0.89320971     0.67640514     1.5696148      157.50444      89.545912      182.04673     -163.81898      111.07095      10.22271       330.96151      59.075635      132.23917      2567565      
   1111000   300.10527      0.89455369     0.67809748     1.5726512      157.46857      89.562985      182.15606     -180.49155     -263.99853      6.9208118     -76.262627     -19.834167      265.0052       2569011.6    
   1112000   299.55093      0.89290132     0.67508915     1.5679905      157.33639      89.558147      182.10153      322.79897      144.78817     -5.6713494      6.0002783      9.8846717      23.736775      2565948.2    
   1113000   300.07906      0.89447557     0.6748685      1.5693441      157.32231      89.571362      182.02885     -170.55205      41.137944      65.34801       83.627585      84.6632       -90.328508      2565073.1    
   1114000   299.96487      0.8941352      0.67529758     1.5694328      157.4816       89.521768      182.02651      108.74088     -254.62077      24.567608      165.54324      272.18514     -101.75922      2566215.4    
   1115000   300.4776       0.89566353     0.67486422     1.5705278      157.41557      89.514776      182.07544     -161.30602     -52.463608     -316.0764       4.8590762     -82.749194     -35.564674      2565628.5    
   1116000   300.66651      0.89622664     0.678301       1.5745276      157.42862      89.552273      182.32638      42.695197     -293.4013      -243.41108      48.930251      102.17806     -117.99107      2570453.9    
   1117000   300.12287      0.89460616     0.67636083     1.570967       157.46268      89.523507      182.12068      65.257713     -108.13135     -5.2465693     -5.6955187      40.379656      40.256729      2567284.4    
   1118000   299.8764       0.89387149     0.67516371     1.5690352      157.42577      89.490159      182.03436      120.6276       561.30741      49.401669      38.264167      185.02171     -75.145061      2564510.5    
   1119000   299.72358      0.89341595     0.67626369     1.5696796      157.43758      89.521815      181.94609      28.680113     -16.917089      145.33551      211.35188      191.52078     -78.91638       2564366.1    
   1120000   299.8631       0.89383184     0.67729978     1.5711316      157.3834       89.562711      182.13747      127.84277      279.47795     -200.03577      64.114856     -78.913397     -123.00907      2567352.1    
   1121000   300.2529       0.89499375     0.67651201     1.5715058      157.42195      89.504744      182.028        314.58174     -6.5316083      68.187555      29.414525      122.73827     -131.75608      2564776.5    
   1122000   300.29312      0.89511365     0.67621019     1.5713238      157.43371      89.513683      182.02808      113.584        253.0724       172.10812     -23.664634     -28.845977     -26.905795      2565225.4    
   1123000   300.23292      0.8949342      0.67574027     1.5706745      157.39216      89.502665      181.91228      35.302273     -703.78926     -286.52366     -157.88266      52.190835     -146.93224      2562601.6    
   1124000   299.74908      0.89349196     0.67819036     1.5716823      157.43508      89.547896      182.1013       21.672217      79.456263      20.812102     -210.19128     -18.104134      89.794599      2567260.5    
   1125000   300.99721      0.89721239     0.6763466      1.573559       157.43043      89.519554      182.17922      272.17971      474.05829      51.711143      298.88998     -86.596796     -42.312192      2567470.4    
   1126000   300.31689      0.89518448     0.6743003      1.5694848      157.35537      89.534846      181.9349       13.963272      448.84745      109.77618     -54.16197       178.13748      101.96697      2563242.4    
   1127000   299.43382      0.89255225     0.67528029     1.5678325      157.34282      89.523627      182.04854     -181.04721      77.614149     -204.28861      51.110308      60.951923     -116.51722      2564317.6    
   1128000   298.81787      0.89071621     0.67644846     1.5671647      157.42447      89.495232      182.03679      311.4141       196.43619      63.937033      68.108804      61.765094      201.91723      2564668.9    
   1129000   300.23247      0.89493287     0.67379107     1.5687239      157.43375      89.553221      181.96584      310.53444      40.076824     -22.156542      81.818555      24.749603      175.99375      2565481.8    
   1130000   299.52287      0.89281767     0.6755641      1.5683818      157.40406      89.542336      181.90093      62.395244     -198.69601     -48.525068      62.359595      71.82036       96.165562      2563771.2    
   1131000   299.42369      0.89252203     0.67704988     1.5695719      157.34867      89.53826       182.1809       103.87901      344.29814     -287.26512     -69.907429      67.939934     -177.89377      2566696.8    
   1132000   301.15051      0.89766936     0.67656617     1.5742355      157.36335      89.555684      182.10062     -250.30104      319.28808      64.201402      261.85088      82.982429     -127.21022      2566304.4    
   1133000   300.42357      0.89550248     0.67478198     1.5702845      157.34902      89.530071      182.04899      250.31585      370.30952      41.519045      191.19827      92.850455      38.676346      2564609.5    
   1134000   300.21189      0.8948715      0.6734377      1.5683092      157.41697      89.533227      181.90393      152.32058     -67.626806     -1.2809352     -144.21552      23.354052     -61.68855       2563763      
   1135000   299.28959      0.89212231     0.67509474     1.567217       157.36741      89.540849      182.05944     -228.40494     -40.275093     -30.318418     -132.15852      61.972199     -109.19543      2565365.2    
   1136000   300.33449      0.89523695     0.6732985      1.5685355      157.44675      89.529041      181.97652     -230.05005      174.39373      141.85249     -100.70977      132.6713      -76.14061       2565151.4    
   1137000   299.9545       0.8941043      0.67653531     1.5706396      157.32117      89.527757      181.8933       122.02257      344.20686      322.87642      215.03294      18.446605     -220.40902      2561896.6    
   1138000   299.90469      0.89395581     0.67392125     1.5678771      157.29159      89.537932      182.0005      -175.84398     -457.89775     -65.474554      106.20824      156.15515     -78.173158      2563215.6    
   1139000   300.06067      0.89442075     0.67777332     1.5721941      157.34134      89.527855      182.02303      380.19653      30.315244     -142.25959      80.993414      128.05157      105.38843      2564055.2    
   1140000   299.90284      0.8939503      0.67493979     1.5688901      157.408        89.548284      181.89626     -79.579016      78.20223       46.664207     -57.952918      22.518466     -216.15913      2563939.9    
   1141000   299.92554      0.89401796     0.6759922      1.5700102      157.43282      89.52399       181.97614     -89.141147      468.78239     -158.03196     -329.73691      11.614627     -114.98074      2564774.3    
   1142000   299.58173      0.89299314     0.67922482     1.572218       157.41202      89.541238      182.06536      282.33252      206.9751       61.704441      5.1998754     -57.053724      75.515144      2566187      
   1143000   299.91389      0.89398323     0.67811634     1.5720996      157.39785      89.548601      182.04532      54.266676      419.97226     -111.48791      292.90152     -5.5575595     -59.88564       2565884.4    
   1144000   299.52521      0.89282466     0.6772365      1.5700612      157.42249      89.548888      182.02416     -55.401461     -404.08685     -247.01366      417.05546      136.6236       58.660703      2565996.2    
   1145000   299.68242      0.89329327     0.67375186     1.5670451      157.39812      89.532319      181.95509      97.014973     -203.66006     -79.230327      64.402247     -18.665541     -119.77671      2564150.9    
   1146000   299.74989      0.89349437     0.67713039     1.5706248      157.44838      89.578584      181.99919      121.54466      9.484991       45.249028     -124.0543       86.374037     -59.28545       2566917      
   1147000   299.73428      0.89344786     0.67779481     1.5712427      157.31844      89.626538      181.98298     -310.97257     -509.78391      62.056152      13.922069      63.31191      -73.049355      2565943.1    
   1148000   300.86359      0.8968141      0.67655404     1.5733681      157.43246      89.561343      181.96148     -285.00792     -478.02017     -179.63671      278.95088     -3.9890818     -215.22456      2565631.9    
   1149000   299.11374      0.89159814     0.67696659     1.5685647      157.44278      89.511266      182.01683      436.80647      244.39923      150.59003     -60.965755     -4.2291255     -34.683897      2565145.3    
   1150000   299.86846      0.89384783     0.67553462     1.5693824      157.44301      89.548094      182.09501      66.042667     -82.858961     -64.35896       172.42321      220.86602     -125.06397      2567306.8    
   1151000   300.31177      0.89516924     0.67591469     1.5710839      157.41864      89.579051      182.00972      87.705623     -230.02203     -60.610469      93.797107      44.33966      -134.9938       2566594.1    
   1152000   299.93202      0.89403727     0.67671632     1.5707536      157.39862      89.572358      181.86908     -212.10657      77.426971      107.07781      105.93198      201.94124     -112.19118      2564093.2    
   1153000   299.90758      0.89396441     0.67677654     1.570741       157.43323      89.562934      181.95212      167.87214      311.25464      30.037722     -231.24358      49.171824      98.894039      2565558      
   1154000   299.94234      0.89406804     0.67540931     1.5694774      157.33067      89.547846      182.01251      87.844247     -303.21756      29.442469     -145.79674      90.548719      15.407236      2564305.5    
   1155000   299.86633      0.89384147     0.67780743     1.5716489      157.39095      89.550228      182.21669      124.69386      183.22252     -42.980085      182.23356      121.85634     -69.565222      2568234.1    
   1156000   299.45386      0.89261196     0.67758019     1.5701922      157.37999      89.58581       181.98871      122.63252      17.402587      62.858103     -68.077991     -32.44516      -161.77357      2565861.4    
   1157000   300.192        0.89481224     0.67688432     1.5716966      157.38687      89.541242      181.99603     -232.11602      185.47242     -28.755557      65.041511     -15.902245     -351.57454      2564800.1    
   1158000   299.59304      0.89302685     0.67429328     1.5673201      157.33772      89.550982      181.93015      52.62756      -33.814142     -1.155657      -40.005612      139.76807     -2.5126375      2563349.9    
   1159000   300.40245      0.89543953     0.67513685     1.5705764      157.45875      89.542522      182.00713     -152.82504     -102.07304     -61.827913     -218.14346      106.59176      28.755709      2566164.6    
   1160000   300.13025      0.89462815     0.67642904     1.5710572      157.3673       89.592171      182.13743     -29.581282     -151.2205      -179.8993       84.127287      19.866117     -66.644495      2567933.4    
   1161000   300.45753      0.89560373     0.67304344     1.5686472      157.37451      89.563836      181.99837      197.43024      240.35121     -66.887565     -205.27627      57.37604      -5.0717135      2565278.8    
   1162000   300.42979      0.89552102     0.67476418     1.5702852      157.42844      89.553737      181.9073      -94.377263      64.476382     -41.225296     -308.3359       216.61617     -25.242332      2564584.7    
   1163000   300.5052       0.89574581     0.67416152     1.5699073      157.41219      89.569476      182.01149     -200.09597     -273.00965     -75.121302      245.06916      40.510623     -77.047582      2566239.6    
   1164000   300.38622      0.89539114     0.67603686     1.571428       157.4782       89.58686       182.19081     -73.523294      191.74306     -106.94386     -233.41445     -6.5104846     -250.72645      2570343.9    
   1165000   299.39486      0.89243611     0.67612762     1.5685637      157.43609      89.535739      182.06901     -304.0048       232.81426     -67.890861     -52.286408      251.8243      -177.79312      2566473.3    
   1166000   298.77301      0.8905825      0.67644202     1.5670245      157.40791      89.550969      182.07136     -95.94325      -41.300805     -3.1202161      60.756281      76.561822     -61.881312      2566483.6    
   1167000   300.46631      0.8956299      0.67761284     1.5732427      157.37684      89.536649      182.0493      -93.388823     -195.95124      41.688451     -10.218772     -150.40761      32.571672      2565255.8    
   1168000   300.37725      0.89536442     0.67602731     1.5713917      157.43371      89.573477      182.04802     -403.1595       168.51219     -77.083951      55.665942      119.61396      53.750611      2567220.2    
   1169000   299.9379       0.8940548      0.67418079     1.5682356      157.43756      89.527415      181.98135     -145.81882     -145.53312     -35.730227      33.794531      94.934633     -0.38591225     2565023.2    
   1170000   299.85113      0.89379615     0.67737021     1.5711664      157.27016      89.588324      181.97255      289.26882      11.10369      -1.8145331      130.57856      75.305911     -154.08763      2563914.9    
   1171000   299.83847      0.89375842     0.67279787     1.5665563      157.37434      89.558785      182.02325      351.74487     -48.438362     -128.56493      71.52986      -28.573935     -205.25414      2565482      
   1172000   300.66666      0.8962271      0.67536591     1.571593       157.39824      89.587059      182.10521     -372.97277     -80.900175      92.763587     -177.0664       14.412696      78.51124       2567837.3    
   1173000   299.19384      0.89183691     0.67589883     1.5677357      157.34672      89.581891      182.04728     -120.1865       68.78895      -130.65936      5.7673063      83.715418     -94.300201      2566032.2    
   1174000   300.65813      0.89620166     0.67610679     1.5723084      157.34825      89.55392       182.25055      112.37406      340.5936       132.59953      70.961693      8.3674814     -59.390208      2568120.3    
   1175000   299.90963      0.89397053     0.6735757      1.5675462      157.34502      89.577603      181.91673     -282.20733     -239.12367     -285.0124       279.8599       191.66783     -6.0961348      2564041.8    
   1176000   300.39775      0.89542553     0.67626587     1.5716914      157.40789      89.528144      182.0153       145.25927     -63.948382      172.48171      16.374912      15.772905     -57.091814      2565039      
   1177000   300.5325       0.89582719     0.67575701     1.5715842      157.48664      89.516765      182.01827     -59.878087     -219.73568     -98.856448     -98.1245        202.8126      -51.034375      2566038      
   1178000   299.13066      0.89164857     0.67626009     1.5679087      157.344        89.504797      182.04752     -35.069707     -117.60731     -115.94749      195.67982      14.079601     -45.911528      2563783      
   1179000   299.80777      0.8936669      0.67559561     1.5692625      157.34806      89.518014      182.07341      1.9458529     -99.671358     -29.72941       176.67894      178.99725     -32.592406      2564592.4    
   1180000   299.78299      0.89359304     0.67481079     1.5684038      157.30784      89.570238      182.05443     -202.46134      63.137824      14.554034      17.201024     -33.05409      -162.05238      2565165.2    
   1181000   300.89097      0.89689572     0.67576079     1.5726565      157.35402      89.58497       181.97757      60.162144      221.3242       125.95627      98.742358      94.627297     -32.844853      2565256.9    
   1182000   299.87827      0.89387705     0.67592792     1.569805       157.32293      89.540893      182.03788      168.8968      -368.32147     -292.32154      122.18073      114.98591      117.78363      2564337.7    
   1183000   299.93839      0.89405627     0.67439395     1.5684502      157.44628      89.575155      181.89394     -37.037746     -310.26921      164.22278     -213.98736      156.13579     -144.08037      2565300.2    
   1184000   301.13211      0.8976145      0.67600151     1.573616       157.39706      89.548552      181.88332      79.170621      118.85718      185.12647     -18.445413      228.71893      0.82393395     2563586.8    
   1185000   299.98142      0.89418453     0.67550882     1.5696933      157.39372      89.563664      182.11254      259.68703      175.92012     -22.399901     -247.61739      190.01689     -107.32997      2567196.5    
   1186000   300.88007      0.89686322     0.67502024     1.5718835      157.41493      89.566797      182.01177      423.43013      213.94008     -94.590466     -50.329147      50.054384     -48.600622      2566211.4    
   1187000   300.12293      0.89460635     0.67337662     1.567983       157.32367      89.574894      181.9825       291.12137      23.081872      58.569118     -139.02025      119.61952     -99.783875      2564543      
   1188000   299.57432      0.89297103     0.67615269     1.5691237      157.33059      89.55984       182.03259     -140.53728     -34.553832     -50.98845       98.427687      241.56495      57.854156      2564930.7    
   1189000   300.46734      0.89563295     0.67423057     1.5698635      157.52508      89.524159      181.93085     -79.644092     -133.08733      2.3096696     -178.91138      73.667082     -62.835069      2565643.5    
   1190000   299.92026      0.89400221     0.67503479     1.569037       157.36178      89.571557      182.04315      64.956931     -259.16844     -17.205207     -22.787345      150.47872     -117.03305      2565923.7    
   1191000   300.1035       0.89454841     0.67653606     1.5710845      157.35687      89.570353      182.10451     -15.669032      176.10438     -3.3461035      361.21737      146.26111     -27.476949      2566674      
   1192000   299.54878      0.89289492     0.67603877     1.5689337      157.33231      89.630434      182.02269      182.13101      195.31873     -16.182271      181.3698       89.717068     -8.1256396      2566840.9    
   1193000   299.47142      0.8926643      0.67622003     1.5688843      157.33687      89.558093      181.9286      -118.48927      217.56074      249.05978     -81.244608      94.908839     -123.98359      2563517.8    
   1194000   300.46792      0.8956347      0.67389253     1.5695272      157.45099      89.55039       182.00618      97.259212     -108.75386      64.166156     -55.864771     -22.062175     -242.4623       2566250.3    
   1195000   300.15689      0.89470756     0.67540755     1.5701151      157.43126      89.53346       182.045        429.57254     -290.34811      12.420982     -23.170295      68.467243      22.409283      2565990.8    
   1196000   300.09442      0.89452135     0.67673598     1.5712573      157.33217      89.516408      182.01188      112.21119      195.49846     -21.105387     -200.48772      112.81447     -174.51482      2563420.9    
   1197000   300.28231      0.89508141     0.67389881     1.5689802      157.37583      89.523273      182.06286      577.30782     -69.072181     -36.736711      199.79861      190.05692     -279.36755      2565047      
   1198000   300.29327      0.89511409     0.67254567     1.5676598      157.3922       89.567672      182.12632     -57.509608      15.177345      26.206192     -18.79915       0.28679558    -60.765779      2567480.7    
   1199000   299.20575      0.89187242     0.67592233     1.5677947      157.41265      89.552795      182.12443     -72.017005     -24.592888     -293.25672      53.672129      139.64908      91.525171      2567361.3    
   1200000   299.44972      0.89259964     0.67547211     1.5680718      157.34379      89.540274      182.05833      198.13416      172.97159      48.392577     -175.45323      68.540157     -195.33147      2564948.1    
   1201000   300.11247      0.89457517     0.67439537     1.5689705      157.35393      89.584075      181.99169      146.28255     -14.574758     -92.686256      120.15519     -131.33206      0.33895638     2565428.8    
   1202000   300.01172      0.89427484     0.67605941     1.5703343      157.31327      89.535654      182.06384     -373.99633     -217.52592      17.529339     -44.278617      113.65758     -46.238085      2564395.8    
   1203000   299.85769      0.89381572     0.67432759     1.5681433      157.32579      89.525965      182.13174      337.1642      -10.322236     -59.64121      -17.464783      153.04538     -191.63699      2565278.7    
   1204000   300.77887      0.89656157     0.67737505     1.5739366      157.40629      89.525882      182.14346     -439.3499      -119.55349     -262.51619     -166.34029     -60.024967     -23.155969      2566754.1    
   1205000   300.0512       0.89439253     0.67577698     1.5701695      157.35848      89.535727      181.90397      219.67289      61.292298      61.234         266.43588     -96.221686     -71.840276      2562882.6    
   1206000   299.19122      0.89182909     0.67665055     1.5684796      157.41488      89.545135      182.0384       26.621266      111.20072      155.6371      -12.054447      71.807794      41.085261      2565965.3    
   1207000   299.98815      0.89420458     0.67705618     1.5712608      157.40009      89.556587      182.10605     -357.54808      208.18917      19.759526     -270.27878      31.597726     -95.52755       2567005.9    
   1208000   299.50527      0.89276523     0.6739115      1.5666767      157.36373      89.558493      182.02074      271.05832      33.594603     -121.23962      17.473749      110.76313     -151.16399      2565265.2    
   1209000   299.56804      0.89295232     0.67518671     1.568139       157.40292      89.523329      181.89696     -505.37221      252.83621      37.494143      162.09384      238.0898      -107.64414      2563152.5    
   1210000   300.23741      0.89494758     0.67656968     1.5715173      157.38274      89.566449      182.12878      202.85087     -263.45884     -60.757939     -97.260503      45.767526     -58.504677      2567326.1    
   1211000   300.87537      0.89684922     0.67585821     1.5727074      157.35701      89.576858      182.02483     -220.0463      -225.38175     -111.1865      -14.787118      169.45545      107.96274      2565739.4    
   1212000   299.27032      0.89206489     0.67873874     1.5708036      157.32916      89.595671      182.03034     -69.62571      -499.84477     -50.958971     -159.79231      131.8718      -242.04575      2565901.7    
   1213000   299.61504      0.89309244     0.67347543     1.5665679      157.38301      89.547181      181.98182      46.137645     -102.88913     -4.0899146      43.845946      2.8411999     -58.088412      2564707.1    
   1214000   300.37871      0.89536878     0.67598308     1.5713519      157.40172      89.57414       182.01955      123.94024      49.769222      6.2223841      34.25783       109.41428     -26.117887      2566316.1    
   1215000   299.20766      0.8918781      0.67766819     1.5695463      157.37889      89.529701      181.97423     -90.242508     -6.33248        167.8168       168.65094      299.42813     -87.376693      2564032.4    
   1216000   300.97877      0.89715743     0.67695675     1.5741142      157.42623      89.556253      182.08624      156.77942      80.840973     -100.44025     -10.404503     -136.37799     -310.22369      2567143.4    
   1217000   299.23358      0.89195537     0.67666239     1.5686178      157.41868      89.590823      182.18423     -211.21788     -11.887176      199.60994      54.890719      140.38989     -212.88634      2569393.2    
   1218000   300.32598      0.89521158     0.67640986     1.5716214      157.40091      89.523605      182.17897      64.995822     -276.13714     -196.85457     -189.56201      263.2026      -174.57486      2567101.4    
   1219000   299.86968      0.89385145     0.67648552     1.570337       157.49097      89.529037      182.076       -25.376301     -55.147768      12.936086      12.716704      140.79044     -113.15645      2567274.3    
   1220000   300.00193      0.89424568     0.67697622     1.5712219      157.4181       89.533211      182.05839      31.327466      122.78045      72.771184      51.102781      36.077459     -88.515233      2565957.9    
   1221000   300.82322      0.89669377     0.67468283     1.5713766      157.44039      89.594554      182.03627      225.90641      186.62023      73.673956      18.681086     -12.458615      58.430704      2567767.5    
   1222000   299.92152      0.89400596     0.67727534     1.5712813      157.47747      89.599798      182.13097     -85.524493     -68.665532     -66.55632      -73.633175     -43.35224      -146.93327      2569858.8    
   1223000   300.43448      0.89553499     0.67705579     1.5725908      157.49143      89.539058      182.06395      132.98549     -152.45311     -92.391847     -51.449914      114.41231     -57.718362      2567399.3    
   1224000   299.44099      0.89257362     0.67787702     1.5704506      157.45843      89.547028      182.13634      123.91542     -14.920313     -26.140015     -238.44686      215.38004     -9.0007165      2568110.5    
   1225000   299.94421      0.89407361     0.67677804     1.5708516      157.44782      89.576224      182.13651      46.255704     -54.141531     -29.190858      62.685933      212.02423     -209.87827      2568777.1    
   1226000   299.68157      0.89329075     0.67694787     1.5702386      157.36607      89.596348      182.1194      -178.0065      -375.34663     -103.40557      254.89687      209.5477      -84.616608      2567779      
   1227000   300.11604      0.8945858      0.6762782      1.570864       157.43472      89.547603      181.96782     -328.18623     -82.957674     -111.8068       96.976939      71.997359     -97.507508      2565364.4    
   1228000   299.96628      0.89413939     0.67581233     1.5699517      157.34339      89.534374      182.27279      277.11936     -156.0113      -152.26811     -294.5773       240.49026     -48.798465      2567793.8    
   1229000   300.38056      0.89537427     0.67453687     1.5699111      157.38874      89.527115      182.20974      207.40945      126.02635     -152.92868     -333.20952      130.23235     -253.88198      2567437.2    
   1230000   299.67541      0.89327237     0.67741287     1.5706852      157.46169      89.532271      182.06286     -46.695751     -132.26302     -73.577692      110.57751      229.28396     -8.1931394      2566704.5    
   1231000   299.98549      0.89419665     0.67406178     1.5682584      157.33126      89.58983       182.02553     -420.2336      -48.832824     -73.412916      131.88303      162.99381     -126.47603      2565701      
   1232000   299.64147      0.8931712      0.67642476     1.569596       157.39426      89.589842      182.10846     -240.6731      -469.88457     -86.575261     -123.65672      25.250235     -18.702341      2567898.1    
   1233000   300.17501      0.89476158     0.67821668     1.5729783      157.41355      89.578658      182.19481      172.25557      261.55837      51.495155     -32.7317        95.806819     -198.17516      2569109.8    
   1234000   299.72757      0.89342786     0.6764018      1.5698297      157.45598      89.541461      181.92024     -391.56813      273.88179     -125.78038      61.088536      85.470268      29.775783      2564864.1    
   1235000   300.76128      0.89650912     0.67527091     1.57178        157.48229      89.530478      182.04863     -307.06184      482.0206      -2.3622356     -117.57696      343.71066      90.226481      2566788.2    
   1236000   301.0152       0.89726601     0.67495974     1.5722257      157.34458      89.55881       182.1134       408.75329      161.64271      170.28385     -90.153237      7.8975918     -33.064226      2566267.9    
   1237000   300.33292      0.89523227     0.6760423      1.5712746      157.27427      89.561801      182.08019     -58.362461     -206.77178     -42.172071     -0.77024154     161.53278     -75.57837       2564739.1    
   1238000   300.31251      0.89517143     0.67822833     1.5733998      157.35837      89.546625      182.04688      219.17548      134.55377     -62.896919      40.049467     -4.3782376     -106.08571      2565206.4    
   1239000   299.92398      0.89401332     0.67758669     1.5716         157.47633      89.560338      182.13558      278.02377      235.927        74.636132     -100.21847      203.29902     -165.49797      2568773.5    
   1240000   299.19273      0.89183361     0.6739146      1.5657482      157.42386      89.560459      182.07579     -27.614592      148.05908     -41.615284      199.72472      35.973206     -64.564221      2567078      
   1241000   299.74075      0.89346715     0.6773813      1.5708485      157.50897      89.59165       182.11945     -451.17802     -130.84018      28.162134     -37.323743      72.002787     -101.7559       2569976.4    
   1242000   300.14407      0.89466936     0.67641235     1.5710817      157.44776      89.511719      182.24642      285.39043     -157.87007      92.70769       241.69225      133.98716     -7.5150444      2568475.3    
   1243000   300.63515      0.89613316     0.6772381      1.5733713      157.43636      89.530853      182.06112      283.20134      206.39401      183.65007      398.1525       297.1953      -87.094025      2566226.5    
   1244000   300.71763      0.89637902     0.67846159     1.5748406      157.37688      89.601451      182.10111      9.9971743     -278.77061     -109.70104      77.782416      118.36685     -61.568304      2567843.7    
   1245000   300.37981      0.89537203     0.67861854     1.5739906      157.45074      89.569945      182.13331     -136.42052      202.97958     -128.83822     -74.470516      87.985376     -142.48935      2568599.5    
   1246000   300.53711      0.89584092     0.67548968     1.5713306      157.34675      89.550252      182.20455      739.83339      26.738321      391.71405     -59.378068      210.76534      66.933535      2567342.5    
   1247000   300.16973      0.89474583     0.67224953     1.5669954      157.49253      89.519599      182.01599      112.5881      -193.85363      277.9813      -161.80331      185.55698     -146.12619      2566183      
   1248000   299.29145      0.89212788     0.67845388     1.5705818      157.43119      89.542124      182.23608     -136.5206       83.468278     -59.615714      175.16951      154.99765     -138.09239      2568931.5    
   1249000   300.59565      0.89601541     0.67706468     1.5730801      157.30758      89.539282      182.15773     -107.01414     -173.28895     -344.65336      130.90583     -49.76659      -214.33792      2565729.5    
   1250000   299.48385      0.89270136     0.67567874     1.5683801      157.368        89.546644      182.24568     -236.99745     -359.86043      68.426812      80.342607      262.36217      11.985767      2568165.3    
   1251000   299.76833      0.89354934     0.67770143     1.5712508      157.36572      89.536593      182.05499      213.04762     -43.906213     -100.07996      171.38497      55.716162      55.888318      2565153.1    
   1252000   299.82665      0.89372319     0.67630704     1.5700302      157.36262      89.568732      182.09103     -3.8668039     -47.685272     -61.74557       246.60119      17.744869     -97.482732      2566531.2    
   1253000   300.17123      0.89475032     0.67555565     1.570306       157.32763      89.606166      182.15281     -53.543988      11.92675       25.597976      109.19366      229.43241     -98.73738       2567903.9    
   1254000   300.67295      0.89624585     0.67571295     1.5719588      157.41113      89.585467      182.12984     -378.4634      -57.639731      81.546338     -21.589417      158.7338      -70.379383      2568349.3    
   1255000   299.6375       0.89315937     0.67910019     1.5722596      157.45366      89.541304      182.08002      303.5185       430.69286      171.705        278.26315      50.677725     -78.637199      2567074.4    
   1256000   300.24648      0.89497461     0.67606261     1.5710372      157.4612       89.595135      182.15027      141.03258      0.77449772     343.42304     -75.03412       176.91727     -87.798052      2569731.9    
   1257000   300.31059      0.8951657      0.67676404     1.5719297      157.46563      89.546379      182.08149      205.09359      85.745124     -12.052456      61.498116     -10.262218     -136.24406      2567435.8    
   1258000   299.81419      0.89368605     0.67615933     1.5698454      157.45205      89.538102      182.09819     -531.7155      -272.87259     -46.452998     -126.27283      230.1187       81.09617       2567212.5    
   1259000   300.14965      0.89468599     0.67708345     1.5717694      157.46409      89.536407      181.89685     -2.8512401      299.78497      228.79968     -130.75225      60.950388     -102.62076      2564521.7    
   1260000   300.01358      0.89428039     0.67681279     1.5710932      157.40258      89.572672      182.16785      314.67061      39.99541       144.0197      -99.231737      90.566868     -100.41832      2568379      
   1261000   300.10893      0.89456461     0.6774323      1.5719969      157.40725      89.586369      182.18538     -142.7737       51.554442     -27.150981      2.7192561      170.41438     -232.35935      2569095.2    
   1262000   299.70971      0.89337462     0.67524747     1.5686221      157.47929      89.563233      182.0616      -95.026057     -149.53965      32.765688      75.774359      133.64067     -149.20375      2567861.3    
   1263000   299.16067      0.89173804     0.67564567     1.5673837      157.40446      89.528693      182.05813      510.1134       201.28709      146.69089      57.482814     -3.5632186     -179.16196      2565602.3    
   1264000   300.72602      0.89640403     0.67109246     1.5674965      157.32082      89.555083      182.03902      287.59408     -201.90078     -92.081024      158.74891      168.80601     -71.667922      2564725.7    
   1265000   300.18347      0.89478679     0.67884808     1.5736349      157.41683      89.56742       182.03445     -241.83385      122.86187     -6.9248198      33.372515      86.505117     -247.53778      2566580      
   1266000   300.25844      0.89501026     0.67692855     1.5719388      157.40406      89.602866      182.12442      118.71237     -98.242898     -107.44018     -125.78047      8.1669565     -92.738337      2568656.5    
   1267000   300.07551      0.894465       0.67793744     1.5724024      157.4692       89.555957      182.05805     -153.19781     -174.7094      -122.57732     -58.785383      13.79223      -73.721705      2567438.1    
   1268000   299.93754      0.89405373     0.67780167     1.5718554      157.48132      89.522776      182.02194     -421.4407       41.011118      39.237569     -39.845035      7.5956838      84.766703      2566175.3    
   1269000   299.39282      0.89243002     0.67843956     1.5708696      157.45032      89.525778      181.99719     -509.85238     -44.180741      273.33362      33.655696      185.52622     -28.232587      2565407.4    
   1270000   300.30754      0.89515664     0.67870252     1.5738592      157.3427       89.548901      182.10503      219.07384     -448.93571      53.236711     -59.203745      125.13697     -197.52753      2565835.4    
   1271000   300.282        0.89508049     0.67614746     1.571228       157.36004      89.593712      181.92727      21.474118     -449.45604      125.15486     -140.93534     -74.878449     -94.595346      2564896.2    
   1272000   299.88079      0.89388457     0.67775145     1.571636       157.29588      89.595413      181.95625      106.22154      17.13585      -88.306519     -67.56143      -17.191734     -148.42581      2564307.6    
   1273000   299.91967      0.89400047     0.67443831     1.5684388      157.44108      89.574574      182.02922      152.70489      88.817334     -110.66904      67.947286      26.215597      28.113101      2567106.7    
   1274000   300.33986      0.89525297     0.67532107     1.570574       157.42889      89.578944      181.93034      141.79421      39.503822      46.698206      50.47692       196.71142     -152.37305      2565638.8    
   1275000   300.76759      0.89652795     0.67838351     1.5749115      157.40656      89.615         182.12147     -145.80129      90.857178      79.043151      47.41056       144.19969     -202.5208       2569003.3    
   1276000   300.45383      0.89559269     0.67595169     1.5715444      157.41598      89.556117      182.03502     -55.47418      -264.27451      26.829886     -26.581655      63.697446     -208.46091      2566250.3    
   1277000   300.00007      0.89424013     0.67775399     1.5719941      157.39548      89.564462      182.16787      115.41245      404.26225     -8.1190563     -63.392217      88.167685      126.64944      2568027.9    
   1278000   300.10564      0.89455479     0.67459665     1.5691514      157.32264      89.540186      181.87562      138.88415      38.91381      -106.129        304.70737      208.52583     -116.52323      2562026.9    
   1279000   300.29724      0.89512593     0.67252489     1.5676508      157.3669       89.516884      182.03262     -113.15975      372.54243      71.279218     -82.057602     -51.093561     -121.13195      2564292.5    
   1280000   299.92235      0.89400846     0.67429718     1.5683056      157.35508      89.555617      182.07497      231.96537     -53.427249     -30.199337      234.69335      45.216954     -189.14881      2565806.2    
   1281000   300.10058      0.89453971     0.67610685     1.5706466      157.40739      89.552751      182.08873      395.28058      7.4855893     -145.12497      139.61189      96.574713     -193.14573      2566771      
   1282000   299.90597      0.89395962     0.67500604     1.5689657      157.51581      89.536403      182.04008     -264.43235      338.77422     -17.946476      121.62637      68.075965     -129.82908      2567383.8    
   1283000   300.08367      0.89448931     0.67770549     1.5721948      157.34472      89.554207      182.15779     -37.980688     -18.284741     -182.11587     -241.68296     -11.85153       124.26009      2566764      
   1284000   300.18569      0.8947934      0.67532525     1.5701187      157.30608      89.511963      182.11658      111.46374      197.59515     -135.26254     -201.69549      202.11518     -37.846904      2564342.7    
   1285000   299.83397      0.89374502     0.67439633     1.5681414      157.41853      89.565289      182.08057      677.7174       47.722107      256.36026     -121.16199     -38.210509     -192.05087      2567196.9    
   1286000   299.45984      0.89262979     0.67709159     1.5697214      157.44631      89.590835      182.08345      155.83389      258.61608      69.952827     -26.94968       170.68901     -67.752511      2568423      
   1287000   299.86193      0.89382836     0.67629988     1.5701282      157.48428      89.57549       182.05841      114.60412     -17.385123      4.6939432      148.98073      16.110919      60.940701      2568249.2    
   1288000   300.87867      0.89685906     0.67670398     1.573563       157.33051      89.556496      181.9722       200.91053      319.10234      77.394743      107.17052      2.6740862     -30.983775      2563982.7    
   1289000   300.60152      0.89603292     0.6761531      1.572186       157.40795      89.519268      182.16023      373.13019      86.16005       49.955132     -148.42894      77.156599     -52.438301      2566827.9    
   1290000   300.03049      0.89433078     0.67763844     1.5719692      157.44947      89.585603      182.06706     -324.58054      92.868008     -107.99302      69.047834     -11.425999     -152.56769      2568093.4    
   1291000   299.77117      0.89355781     0.67619886     1.5697567      157.36046      89.584644      182.02217     -233.06724     -515.59529      104.62331     -118.84881      29.048499      4.9772721      2565981.1    
   1292000   300.48523      0.89568627     0.67411626     1.5698025      157.26922      89.546759      182.08127      345.95729      139.23671      31.740605     -17.290325      153.95091     -168.91834      2564241.2    
   1293000   300.0403       0.89436003     0.67437734     1.5687374      157.32016      89.53971       182.02099     -157.85753     -274.97435     -176.63661     -18.997462      28.637042     -11.913813      2564020.8    
   1294000   299.74383      0.8934763      0.67554868     1.569025       157.34186      89.535442      181.94201     -154.45383      250.41068      85.572766      209.29628     -55.051214      50.298352      2563139.6    
   1295000   299.38486      0.89240631     0.67621218     1.5686185      157.30972      89.56197       182.09211      190.5575       93.504528      138.02973     -46.941076      142.35098     -165.69513      2565489.9    
   1296000   299.91784      0.89399501     0.67688122     1.5708762      157.40107      89.585729      182.07891     -83.314345     -91.132956     -58.469328      13.551344      10.285277      138.73609      2567474.5    
   1297000   300.02499      0.89431441     0.67693801     1.5712524      157.32251      89.552633      181.97498      254.60445      661.55145     -164.07029     -183.67896      60.573159     -40.884773      2563780.9    
   1298000   300.02442      0.89431271     0.67553538     1.5698481      157.27468      89.600937      182.07426      251.28211     -171.99853     -73.823416      395.19617      54.647558     -145.71242      2565783      
   1299000   299.69973      0.89334486     0.67282806     1.5661729      157.2832       89.55309       181.93577      82.384048     -30.966514      52.499179     -125.48085     -38.713044     -202.10185      2562601      
   1300000   299.36636      0.89235117     0.67614225     1.5684934      157.30668      89.568033      182.00667     -61.71448      -330.28502     -76.27584       77.076365      173.98256     -182.49221      2564410.3    
   1301000   300.0299       0.89432905     0.67662085     1.5709499      157.38218      89.531836      182.02254      5.746997      -63.669634      190.93492     -298.55095     -138.88037     -178.44498      2564827.8    
   1302000   299.15949      0.89173453     0.6791389      1.5708734      157.38681      89.603092      182.04152     -286.37245     -438.65638      26.979371      46.815491      8.7394542      9.5778372      2567212.3    
   1303000   299.92788      0.89402494     0.67602043     1.5700454      157.45172      89.53511       182.10036     -12.693093      14.461105      68.282095     -108.42055      143.40973     -101.88642      2567152      
   1304000   300.41967      0.89549087     0.67762224     1.5731131      157.39967      89.545015      182.02176     -30.810099      293.67737     -167.25539      56.756576      132.81916     -117.16913      2565479.5    
   1305000   299.57404      0.8929702      0.6751548      1.568125       157.33965      89.566261      181.94022     -175.54131     -40.800613     -109.49533      135.6468       78.914071     -97.111451      2563960.6    
   1306000   300.3919       0.8954081      0.67491487     1.570323       157.39331      89.575184      182.06448     -38.72768       124.2838       62.941308     -160.61746      122.91817     -150.26301      2566842.4    
   1307000   300.09309      0.8945174      0.67620633     1.5707237      157.34713      89.630559      182.07972     -384.18626     -132.0225      -22.51423       130.86069      65.681325     -70.912689      2567890.5    
   1308000   300.22896      0.8949224      0.67304766     1.5679701      157.278        89.551798      181.99612     -178.60795     -314.26059     -166.79422      31.888625      71.557576      14.482737      2563329.3    
   1309000   299.94538      0.8940771      0.67908282     1.5731599      157.30818      89.546916      181.98998     -179.23805     -328.74408      51.770445      55.123316     -20.588924      90.291961      2563595      
   1310000   300.3279       0.8952173      0.6752514      1.5704687      157.24982      89.585021      181.94976     -231.30469      458.5336      -227.93717      6.9289745      152.38562     -30.386266      2563167.7    
   1311000   300.93115      0.89701549     0.67321688     1.5702324      157.37321      89.584389      181.94946      157.85775     -88.318285      233.51201     -6.0778433     -155.3003      -28.619721      2565156.8    
   1312000   300.91838      0.89697741     0.67733752     1.5743149      157.43663      89.551704      182.06934     -306.94965     -124.48718     -147.73987      46.404086      210.99226     -79.364922      2566944.4    
   1313000   300.13614      0.89464572     0.67671296     1.5713587      157.37872      89.510927      182.04274     -41.213328      174.44357      66.958555     -54.053683      13.354838     -54.21654       2564457      
   1314000   300.14978      0.89468638     0.67677268     1.5714591      157.35255      89.499241      182.21254     -297.80246     -137.33878     -248.96692      22.217649      180.08529     -88.744415      2566087.1    
   1315000   301.09877      0.89751514     0.67815038     1.5756655      157.40117      89.534593      182.08346      149.00176      79.762385     -53.1194       -103.34602      230.90386      88.639429      2566074.9    
   1316000   299.22088      0.8919175      0.6748307      1.5667482      157.34627      89.553102      182.16499      277.46106     -88.993563      95.941587      131.19672     -4.2257977     -53.463999      2566858.9    
   1317000   299.72936      0.89343319     0.67663588     1.5700691      157.31417      89.52351       182.06694      611.94022      653.1056       157.70486      88.937294     -30.071527     -45.798855      2564106.2    
   1318000   299.8879       0.89390577     0.67243475     1.5663405      157.3438       89.556857      181.97966      180.77284      243.59769      236.83183      162.99249      16.764898      6.4314012      2564314.6    
   1319000   299.97068      0.89415251     0.67587604     1.5700286      157.43689      89.581234      181.98074     -210.17863      41.90329      -13.52164       78.511966      66.830024     -81.651644      2566545.6    
   1320000   300.068        0.89444262     0.6768324      1.571275       157.37353      89.546584      182.18578      14.318237     -337.48292     -73.265391     -58.847335      107.24922      62.423027      2567409.9    
   1321000   300.12897      0.89462436     0.672802       1.5674264      157.30485      89.576572      182.11576      256.91084      142.59819     -96.948553     -1.2133182      71.955968     -15.418346      2566162.1    
   1322000   300.15106      0.89469018     0.67526317     1.5699534      157.34146      89.54623       182.02621     -283.38397      12.677546     -359.94824      0.083063586    175.22788     -99.300504      2564628.2    
   1323000   300.20335      0.89484606     0.67365165     1.5684977      157.31936      89.520509      181.97989     -54.839195      552.27808      90.810249     -194.929        6.4192272     -146.47931      2562879.1    
   1324000   299.97255      0.89415808     0.67684387     1.571002       157.32257      89.579235      182.05263     -186.84843      177.84856     -21.720962      148.39585      107.81222     -65.747767      2565637.8    
   1325000   300.84109      0.89674703     0.67509277     1.5718398      157.33996      89.547754      182.0438       212.79894      24.924395     -88.833513      302.05911      177.09742     -211.89385      2564895.2    
   1326000   300.67205      0.89624314     0.67707048     1.5733136      157.31852      89.562319      182.1024       447.08713      91.999305      104.08292     -43.496687      72.781675      53.363957      2565788.4    
   1327000   299.29906      0.89215054     0.67794451     1.570095       157.33991      89.530322      182.23084      39.450557     -239.58234     -73.382079      35.364911      217.16222     -189.30151      2567030      
   1328000   300.18693      0.89479711     0.67418688     1.568984       157.26989      89.516095      182.07076      316.22734      445.82319     -73.11805      -50.522452      96.338274     -67.262211      2563226.1    
   1329000   299.85023      0.89379349     0.67652839     1.5703219      157.44398      89.50961       181.97529     -195.02326     -330.62411      204.95073      171.39266      59.015695     -179.67673      2564532.1    
   1330000   300.2259       0.89491327     0.67681202     1.5717253      157.30482      89.58472       182.03092      263.19451      179.16114      141.65471      26.276239      93.984388     -6.8236139      2565199.4    
   1331000   299.35682      0.89232271     0.67569548     1.5680182      157.42029      89.57985       182.05445     -429.64821     -328.97114     -222.03826     -170.10823      153.65891     -12.438598      2567274.7    
   1332000   299.70529      0.89336143     0.67677871     1.5701401      157.30135      89.523192      182.04815      80.689165      35.628497     -140.70313      282.29507      51.729096     -135.52618      2563623.7    
   1333000   300.43668      0.89554157     0.67692835     1.5724699      157.44751      89.560437      182.01806      30.295806     -133.71837      37.51545      -108.41506      86.309273     -135.29523      2566649      
   1334000   300.76905      0.89653229     0.6789436      1.5754759      157.37293      89.566616      182.04002      192.22816     -172.91046      162.98536      277.71214      88.871865     -197.89185      2565919.7    
   1335000   300.84635      0.8967627      0.67730689     1.5740696      157.35673      89.521363      182.06202      76.917781      714.22184      58.374004      127.42224      249.49798     -154.02474      2564669.1    
   1336000   299.62016      0.89310769     0.67587122     1.5689789      157.40901      89.535154      181.90897     -420.10934     -135.409       -11.564276     -8.2023986      194.20581     -54.906319      2563759.5    
   1337000   300.16785      0.89474025     0.6771292      1.5718694      157.34387      89.529738      182.16049     -109.80974      381.35273     -391.46532      191.61425      215.85798     -229.37783      2566086.7    
   1338000   299.65332      0.89320653     0.67511853     1.5683251      157.3409       89.604441      181.98389      415.102        11.692628      252.72034      10.094101      51.241084     -120.75794      2565689.6    
   1339000   299.17121      0.89176945     0.67815487     1.5699243      157.42781      89.610921      182.0414      -132.75344     -157.7722      -177.9767      -103.16367     -42.183754     -235.66109      2568103.6    
   1340000   300.70804      0.89635042     0.67510665     1.5714571      157.30392      89.585397      181.97555     -75.236504     -164.93469      59.860651      24.649446      128.48052     -4.5455251      2564423.9    
   1341000   300.61492      0.89607285     0.67710783     1.5731807      157.32578      89.595321      182.06498      34.157041      13.261607     -149.23711     -17.317282      2.6547661     -123.69311      2566324.9    
   1342000   300.47155      0.89564552     0.67576035     1.5714059      157.20251      89.599483      182.06258     -182.69803     -141.38748      159.08537      50.903098      80.478451      59.547976      2564399.4    
   1343000   299.46448      0.89264363     0.6769531      1.5695967      157.32364      89.578799      182.07233     -19.206801      114.79917      246.24356     -153.44209      79.178499     -88.734885      2565920.3    
   1344000   300.59379      0.89600989     0.67752497     1.5735349      157.40803      89.58384       181.94652      14.044392      442.37206      112.33427      0.52679307     87.955131     -140.72561      2565667.1    
   1345000   300.34345      0.89526366     0.67793005     1.5731937      157.41101      89.566116      181.98013     -233.87025      62.697775      51.098041      142.86766      98.02219      -33.45664       2565682      
   1346000   300.43028      0.89552248     0.67512021     1.5706427      157.35384      89.595576      182.09186     -162.1099       282.65719     -115.63126     -169.34663      18.105177     -275.92275      2567169      
   1347000   300.2433       0.89496515     0.67426591     1.5692311      157.31175      89.558019      182.14845      7.7058707     -262.46694     -47.312206     -234.99795      41.364061     -115.5708       2566203.7    
   1348000   299.39775      0.89244472     0.67482431     1.567269       157.39658      89.566957      181.93389     -60.49542       32.000076      20.249938      88.233888      7.6580263     -181.85821      2564819      
   1349000   299.30275      0.89216154     0.67728962     1.5694512      157.4019       89.52822       182.07945      58.09276       152.67225      309.65576      295.46424      150.31058      75.659801      2565847.6    
   1350000   300.30836      0.89515908     0.67462238     1.5697815      157.42991      89.509051      182.19545     -225.34182      143.71587     -208.47798      100.2674       130.12876     -185.49699      2567389.2    
   1351000   300.10087      0.89454059     0.67481111     1.5693517      157.30494      89.556578      182.06048      231.15247      241.87788      113.32753      111.78624     -13.97341      -187.86756      2564812      
   1352000   300.81938      0.89668233     0.67526224     1.5719446      157.36701      89.547733      181.87427      27.407452     -115.78244      136.95074     -112.23169      58.235432     -231.65412      2562946.7    
   1353000   299.85438      0.89380585     0.67314265     1.5669485      157.29224      89.579345      181.97593      30.983724     -0.076508974    37.515592     -67.046085      147.41107     -269.73224      2564065.5    
   1354000   300.31128      0.89516776     0.67764885     1.5728166      157.30354      89.505982      182.1885       415.80181      48.13543      -144.32024     -3.6920598      113.42849     -154.65636      2565142.7    
   1355000   299.62909      0.89313431     0.6767365      1.5698708      157.3918       89.529195      182.11716     -43.107905      87.420739      94.342373      0.230371       51.572012      8.5531601      2566242.3    
   1356000   299.60855      0.89307306     0.67474919     1.5678223      157.41779      89.536345      181.96972     -30.82166       179.70255      119.55383      167.19067      154.49912      23.56675       2564792.9    
   1357000   300.44797      0.89557521     0.67553441     1.5711096      157.32019      89.58324       182.02885      501.37175      16.16118       35.107731      138.28332     -11.80367      -10.984579      2565378.6    
   1358000   299.6833       0.89329589     0.67542864     1.5687245      157.29046      89.563332      182.12608      572.05304      7.6355773     -383.93785     -149.24848      61.470449     -132.51358      2565693.5    
   1359000   300.14133      0.89466117     0.67768121     1.5723424      157.4403       89.580628      182.13         255.59955      198.52805     -206.43219      174.51875      19.633808     -194.45293      2568688.9    
   1360000   299.66605      0.89324447     0.67629097     1.5695354      157.39856      89.576175      181.97556     -113.63572     -578.23951      95.689351     -247.33148      1.4464595     -24.013036      2565702.7    
   1361000   299.96516      0.89413607     0.67651762     1.5706537      157.40098      89.532163      181.94674     -424.27125     -724.33614     -163.22415      217.66891      6.1383427      56.551678      2564075.4    
   1362000   299.93743      0.8940534      0.67435029     1.5684037      157.3491       89.549249      182.12194     -135.47451     -217.95144     -160.43387      32.112059      209.93671     -14.742942      2566188      
   1363000   299.88661      0.89390191     0.67782265     1.5717246      157.32052      89.556309      182.13992      385.46055     -23.349664     -214.23929      158.03071      174.41223     -167.96815      2566177.5    
   1364000   300.36154      0.89531758     0.6765491      1.5718667      157.34837      89.571044      182.017       -179.63749     -205.13681     -87.59322      -230.90759      147.07476     -216.46254      2565321.7    
   1365000   299.90244      0.89394911     0.67819432     1.5721434      157.33233      89.56705       181.99779     -103.69342     -113.48441     -160.30046     -226.63661      181.80816     -317.49696      2564675.2    
   1366000   300.61683      0.89607857     0.67734021     1.5734188      157.34875      89.585181      182.11825     -276.17688      38.792858     -293.22292      4.6244654      86.035736     -133.49415      2567160      
   1367000   300.01168      0.89427472     0.6766955      1.5709702      157.37669      89.570175      182.08444     -76.644707     -89.824362      55.468167     -173.8281       129.19887     -192.1659       2566709.2    
   1368000   299.4483       0.8925954      0.67824667     1.5708421      157.40617      89.537883      182.0713      -135.65222      540.3259      -16.578765     -169.85216      165.36038     -49.400952      2566079.3    
   1369000   300.10441      0.89455112     0.67484456     1.5693957      157.41593      89.620549      182.10531     -241.71359      7.2587101      8.5357643     -250.70114      135.73185     -154.07742      2569087.4    
   1370000   299.2914       0.8921277      0.67638984     1.5685175      157.32049      89.595635      182.1509      -242.0671       77.087788     -19.66832       107.05311      98.935128     -164.1869       2567458.8    
   1371000   299.87119      0.89385594     0.67808317     1.5719391      157.36609      89.584681      182.15001      131.8661      -175.996       -197.57555      23.014642      139.21913     -64.064098      2567876.3    
   1372000   300.1246       0.89461132     0.67386001     1.5684713      157.4004       89.564033      182.00953     -313.64231     -253.05069      40.611548      89.404598      146.64027     -181.60005      2565863.8    
   1373000   299.59014      0.89301821     0.67558079     1.568599       157.30313      89.58198       182.00822      140.49875      136.81288      118.11173     -58.756127      130.18142     -42.073641      2564773.5    
   1374000   299.39648      0.89244094     0.67562314     1.5680641      157.37647      89.592882      182.1095      -139.92925     -163.79297     -23.360571      89.783148      104.78748     -84.685884      2567709.7    
   1375000   300.77101      0.89653813     0.67494298     1.5714811      157.36756      89.582343      182.14541     -309.77302     -312.58073     -38.742338     -69.757726      100.56906     -215.60741      2567768.4    
   1376000   300.16669      0.89473678     0.67631898     1.5710558      157.40047      89.573549      182.18647     -379.48491     -400.50232     -208.46381      5.7650734      10.6274       -67.096133      2568632.3    
   1377000   299.52373      0.89282024     0.67742666     1.5702469      157.41764      89.545854      182.12225      77.711279      146.53105      135.77414     -129.45797     -39.576382     -90.480596      2567212.9    
   1378000   299.51794      0.89280299     0.6768366      1.5696396      157.42234      89.578125      182.0612       205.54658     -138.45747     -146.13426      109.51878      17.087677      19.750563      2567353.7    
   1379000   300.31727      0.89518564     0.67575448     1.5709401      157.33895      89.559317      182.07995      128.20411     -17.219218     -14.661141     -27.048854      133.0796      -77.590257      2565719.2    
   1380000   299.49464      0.89273352     0.67866142     1.5713949      157.29748      89.572504      182.19677     -408.9173       92.808695     -42.53693      -42.760144     -109.67232      69.089589      2567066.8    
   1381000   299.52396      0.89282094     0.6783004      1.5711213      157.33906      89.559431      182.13701     -120.57173     -325.18111     -252.90524     -108.26528      51.595934     -224.83982      2566528.4    
   1382000   299.52897      0.89283586     0.67671814     1.569554       157.34792      89.548295      182.02552     -79.186053      458.61415      85.398048      100.89475      159.76243     -80.63982       2564782.9    
   1383000   300.09081      0.89451061     0.67397642     1.568487       157.37597      89.505152      181.92862      121.58536      7.0749016     -32.340496     -145.63095      132.49706     -66.245859      2562639.3    
   1384000   300.35086      0.89528575     0.6733434      1.5686292      157.27728      89.523899      182.08268      30.513841      198.56875     -84.667945     -80.715388      130.00081     -197.76954      2563737.9    
   1385000   300.62948      0.89611627     0.67532363     1.5714399      157.34205      89.541285      182.11925      56.678774     -117.5184      -56.843742     -67.573146      133.4176      -242.41212      2565807      
   1386000   300.26956      0.89504341     0.67678259     1.571826       157.38655      89.559427      182.02802      250.01971      152.12147      187.33908     -104.95547      159.34382     -75.460793      2565766.8    
   1387000   300.25868      0.895011       0.67449526     1.5695063      157.32475      89.540451      181.89924      501.69356     -100.40819      30.569849     -34.929381      161.81207      90.285004      2562401.7    
   1388000   299.52584      0.89282654     0.67476857     1.5675951      157.26988      89.537194      182.07847     -381.0314      -351.23976     -123.38739     -225.13995      61.821379     -241.19353      2563938.7    
   1389000   299.93445      0.89404453     0.67504429     1.5690888      157.27684      89.553297      182.12807      320.50538      354.56509     -6.8419839      91.498859     -9.3881202     -214.26877      2565211.9    
   1390000   300.31798      0.89518774     0.67788208     1.5730698      157.37267      89.584002      182.04058     -83.047114      57.915245     -184.4947       103.74302      130.16914      51.85969       2566421.5    
   1391000   300.32563      0.89521055     0.67534717     1.5705577      157.29045      89.565165      182.02242      35.598692     -174.87427      189.74564      87.0159        140.61482     -7.1909751      2564285.3    
   1392000   299.98195      0.89418611     0.67777436     1.5719605      157.26623      89.577983      182.09809     -181.87223     -1.6501601     -103.44419      329.92502      75.772856     -38.167747      2565323.5    
   1393000   299.98238      0.8941874      0.67563913     1.5698265      157.27073      89.624839      181.97515      261.44461      79.539383     -9.7990309      67.088395      73.671184     -30.690794      2565006      
   1394000   299.10465      0.89157106     0.67612921     1.5677003      157.29528      89.579811      182.00653     -50.719907     -279.36164      49.445807     -114.04961      137.12284     -103.05544      2564559.7    
   1395000   300.52753      0.89581236     0.67866208     1.5744744      157.37023      89.545346      182.08946      89.962959     -346.32615     -46.431528      125.8272       62.747862     -125.44292      2565963.2    
   1396000   299.82522      0.89371892     0.67431935     1.5680383      157.32857      89.542524      181.90542     -200.78289     -528.53358      19.112732     -153.43747      18.435039     -232.93978      2562610.3    
   1397000   299.76151      0.89352901     0.67474739     1.5682764      157.29659      89.615969      182.03244      122.56697      63.051412      5.9597212      136.68538      279.46769      29.783345      2565981.5    
   1398000   299.34739      0.89229461     0.67688132     1.5691759      157.33755      89.598963      182.13664      174.73227     -117.32893      23.807738      158.20266      12.259405     -9.445987       2567631.4    
   1399000   299.83443      0.89374637     0.67641937     1.5701657      157.34803      89.55879       182.08319     -373.19529     -196.85129     -33.558229      15.075239      89.089584     -177.47238      2565898      
   1400000   299.32452      0.89222644     0.67452674     1.5667532      157.36323      89.562309      181.97462      47.888929      134.10556      153.49206     -190.04451      29.084884     -77.760127      2564716.5    
   1401000   300.25184      0.89499058     0.6781018      1.5730924      157.27932      89.561265      182.0452       63.533366      289.16772     -101.45014     -80.847874     -45.046945     -193.72096      2564313.2    
   1402000   300.22519      0.89491116     0.67782957     1.5727407      157.27109      89.577037      182.00331      204.68202     -90.742237      27.280543      9.2104688     -132.66169     -94.901445      2564040.5    
   1403000   299.90591      0.89395945     0.67514624     1.5691057      157.17342      89.596849      182.03383     -179.59845      95.046365     -61.113619     -30.003149      120.41305     -26.035089      2563444.7    
   1404000   299.34127      0.89227637     0.67079648     1.5630728      157.16627      89.562128      181.88003      165.40783     -107.58265     -119.05471     -21.361979     -23.627451     -97.147462      2560169.7    
   1405000   300.19907      0.8948333      0.67527792     1.5701112      157.23502      89.576617      181.8973       217.66942     -474.05277      291.34992     -58.462739      87.71369      -146.12272      2561947.3    
   1406000   300.55884      0.89590571     0.67515063     1.5710563      157.33819      89.584227      182.10639      289.89657      354.1923      -194.17756     -44.403231      134.55266     -130.08097      2566793.2    
   1407000   299.51875      0.89280541     0.67463314     1.5674386      157.33865      89.573392      181.93008     -208.42744     -187.65266      20.995119      227.74768      56.079947     -152.07229      2564005.6    
   1408000   301.03373      0.89732126     0.67594012     1.5732614      157.30023      89.596415      181.96154     -157.13091      277.26738      94.834293     -171.9637       43.372115     -119.18222      2564481.7    
   1409000   300.82488      0.89669873     0.67624493     1.5729437      157.31897      89.604673      182.01622      312.24067     -71.77102      -34.333915     -280.94828      64.706594     -170.10908      2565794.4    
   1410000   299.89565      0.89392886     0.67525044     1.5691793      157.393        89.624427      182.08898     -420.12308      361.6391      -204.87226      157.40507      59.297368     -37.632263      2568594      
   1411000   299.85612      0.89381104     0.67558967     1.5694007      157.32051      89.617476      182.06866     -144.20259     -261.3187       39.28376       159.38153     -2.6280157     -179.83223      2566925.4    
   1412000   300.54094      0.89585234     0.67451247     1.5703648      157.32559      89.573431      181.99283      392.41275      58.783681     -161.11149     -208.40071      143.95363      140.87141      2564678.2    
   1413000   300.51552      0.89577658     0.67539105     1.5711676      157.27455      89.542765      181.92005     -57.732205      164.14072      148.53223      123.02166      176.97302      70.110614      2561943.2    
   1414000   300.38565      0.89538944     0.67562861     1.5710181      157.29001      89.572834      182.15178     -349.30328      66.36968      -411.30983      69.185808      153.33252     -114.51665      2566320.5    
   1415000   299.08043      0.89149887     0.67734477     1.5688436      157.28514      89.586126      182.13642      469.91514      647.34558      100.50554     -101.62776      20.920978     -123.77697      2566405.4    
   1416000   299.32823      0.8922375      0.67409133     1.5663288      157.30228      89.539252      181.99006     -406.533        37.559679     -242.88607     -136.69022      35.417643     -206.85912      2563280.6    
   1417000   300.90692      0.89694325     0.67739569     1.5743389      157.33479      89.586925      182.02306     -273.40578     -169.87662     -97.231592      88.131457      359.47014     -147.42335      2565640.6    
   1418000   300.10769      0.8945609      0.67730612     1.571867       157.24185      89.567932      181.88522      247.89419      374.75979      288.4219      -350.12936      103.3144       175.38191      2561640.1    
   1419000   300.03659      0.89434898     0.67441596     1.5687649      157.25293      89.545897      181.96159     -145.71353     -113.85627     -118.99591     -94.824905      136.22375      106.62878      2562265.6    
   1420000   299.46729      0.89265201     0.67597608     1.5686281      157.27133      89.521668      182.04656     -110.34507     -58.126434     -2.6407871     -9.8552119      105.40926     -215.53821      2563068.4    
   1421000   300.1331       0.89463666     0.67441099     1.5690476      157.18973      89.567204      181.9186       308.03936     -162.79619      294.24074     -48.623526      19.406394     -246.86861      2561240.1    
   1422000   298.93607      0.89106856     0.67253388     1.5636024      157.15742      89.585435      182.03168      443.06227      161.03064     -82.831758      374.25932      5.1302152     -40.313815      2562826.9    
   1423000   300.06643      0.89443792     0.67668725     1.5711252      157.31365      89.547064      182.03823     -400.28443      102.74947     -136.17925      331.2488       21.130547     -124.52285      2564368      
   1424000   299.12184      0.89162229     0.67649003     1.5681123      157.33221      89.570929      181.93451      50.353479     -177.85195      50.834761     -111.15899      101.87247     -41.389042      2563892.5    
   1425000   300.2536       0.89499585     0.67584383     1.5708397      157.28609      89.556061      181.98164     -302.16331      91.573116     -200.27514      135.5555       35.275577     -110.32883      2563379.3    
   1426000   299.97191      0.89415619     0.67363047     1.5677867      157.28911      89.611431      182.03003     -324.77496     -208.64305     -100.77715      137.5951      -75.250957     -226.78401      2565695.5    
   1427000   299.14854      0.89170188     0.67529769     1.5669996      157.29388      89.659414      181.93444      11.87632      -153.63362      120.81409     -443.81105      212.36741     -87.763689      2565799      
   1428000   300.33541      0.89523971     0.67303964     1.5682793      157.35151      89.56098       182.01295      87.405399      172.4008       177.01615     -81.995033     -126.93978     -7.9535248      2565027.7    
   1429000   300.04528      0.89437489     0.67915612     1.573531       157.29581      89.58432       181.9581       89.329391     -232.5284       146.62646      26.557342      182.67517      98.957752      2564014.9    
   1430000   299.61936      0.89310529     0.67410278     1.5672081      157.31307      89.573435      181.86614     -83.553725      65.262975      41.474153     -52.871046      97.121099     -33.42188       2562688.9    
   1431000   300.1789       0.89477318     0.67429839     1.5690716      157.29558      89.604185      181.92585      187.76089      181.21603     -125.89972      29.996051      91.477067     -254.33225      2564125.2    
   1432000   299.92601      0.89401937     0.67668784     1.5707072      157.22899      89.58755       181.96984     -39.479931      96.419256     -55.264771     -80.44961       71.173826     -196.07789      2563183.5    
   1433000   300.23477      0.89493972     0.6768193      1.571759       157.35653      89.547457      182.10854     -67.022349      204.50968     -194.24864     -105.9049       115.48025     -27.132054      2566069.2    
   1434000   300.06814      0.89444301     0.67647468     1.5709177      157.37172      89.581489      182.09679     -97.84471       129.42473     -47.756697     -240.2807       195.29618     -139.33026      2567126.4    
   1435000   299.49577      0.8927369      0.67377463     1.5665115      157.33174      89.599919      182.03781     -719.91386      178.6449      -229.0812       44.272308      101.54758     -108.49976      2566170.8    
   1436000   299.55984      0.89292787     0.67768239     1.5706103      157.27282      89.573234      181.94816     -183.89469     -295.00622      79.810004      44.012014      52.073065     -102.39039      2563182.8    
   1437000   300.22804      0.89491965     0.67463698     1.5695566      157.25291      89.620296      181.94703     -12.651515     -419.24071     -96.533921     -114.88107      67.442494     -155.64286      2564189      
   1438000   299.52802      0.89283304     0.67475314     1.5675862      157.26687      89.641701      181.98347     -450.37376     -156.00813      50.545627     -4.2271043      175.75755     -210.08996      2565542.8    
   1439000   300.4853       0.89568649     0.67412926     1.5698158      157.20313      89.571988      182.02823      169.92007      262.61822      167.40967     -190.29377      163.8038      -30.33575       2563138.9    
   1440000   299.55133      0.89290251     0.67616831     1.5690708      157.19074      89.589376      182.08341     -213.22516      261.42307     -178.75748     -147.78669      150.24874      49.874367      2564211.5    
   1441000   298.72881      0.89045076     0.67563211     1.5660829      157.20036      89.583109      182.01495      370.97091      77.939694      51.117608     -81.45164       181.84921      108.07472      2563225      
   1442000   300.14682      0.89467755     0.67466972     1.5693473      157.22164      89.613561      182.03819     -116.28588     -349.72367      114.6626       86.808009      258.74237     -219.77072      2564770.9    
   1443000   299.5763       0.89297696     0.67965808     1.572635       157.36915      89.534317      181.96271     -297.97226      142.48599     -48.760599     -102.85878      193.56716     -244.32107      2563843.5    
   1444000   298.76653      0.89056319     0.67969697     1.5702602      157.38178      89.565167      182.12941      58.506134     -56.992299     -177.6655       80.715086      63.515725     -105.74191      2567282.5    
   1445000   299.59131      0.89302169     0.67453535     1.567557       157.2244       89.598894      182.09577     -91.922433     -295.73215      37.140847      35.084032     -12.24643      -122.82485      2565207.3    
   1446000   299.68704      0.89330703     0.67496374     1.5682708      157.25541      89.574844      181.91417      22.403118     -92.622293     -25.96461       24.769536      270.45767     -112.79141      2562466.4    
   1447000   300.6998       0.89632589     0.67544246     1.5717684      157.28579      89.605822      181.94995     -57.275219      343.91728      122.55881      192.56174     -27.063913     -35.546227      2564352.1    
   1448000   299.2988       0.89214976     0.67627897     1.5684287      157.25309      89.574846      182.09461     -36.597375      114.04185     -10.652264      115.36653      204.77691     -89.940057      2564970.3    
   1449000   299.27973      0.89209292     0.67610516     1.5681981      157.22685      89.575868      182.01745     -191.14998      105.54169      113.35508      96.400171      113.07359     -157.59977      2563485      
   1450000   300.40753      0.89545468     0.67696357     1.5724182      157.24656      89.575228      182.13005      81.919789      112.6921      -168.91625      121.85085      92.215133     -319.92424      2565373.9    
   1451000   300.79965      0.8966235      0.67681233     1.5734358      157.34319      89.601791      182.05587     -162.37071      39.242852      31.033249      55.602183     -60.29795      -276.71609      2566665.7    
   1452000   300.53578      0.89583698     0.67428897     1.5701259      157.31609      89.549443      181.99921     -285.15998     -522.87815     -238.59945      11.897391      159.19691     -175.51994      2563926.3    
   1453000   299.52208      0.89281532     0.67612988     1.5689452      157.31515      89.537958      182.01288      0.033088473   -202.46596      241.01152     -199.56737      142.1144      -138.74687      2563774.7    
   1454000   300.5607       0.89591126     0.67455299     1.5704642      157.32932      89.575655      181.98271     -95.149441     -518.91108     -228.5429       7.3473491      301.25        -205.48947      2564659.8    
   1455000   300.04744      0.89438131     0.67485163     1.5692329      157.22182      89.570978      182.12142      50.468304      93.12069       74.807255      182.73202      69.464638     -226.28107      2564727.1    
   1456000   300.56792      0.89593277     0.67640844     1.5723412      157.24358      89.596723      181.99804     -64.929475     -82.338664     -131.30044     -126.30621      113.21459     -60.469997      2564081.1    
   1457000   300.16244      0.8947241      0.67559781     1.5703219      157.27746      89.559524      181.91207      411.22004     -94.385928      156.1878      -36.807983      157.45588     -186.2987       2562357.8    
   1458000   300.29488      0.89511889     0.67568456     1.5708034      157.29992      89.588251      182.01334     -49.476708     -98.602018      272.63932     -12.213958      244.44514     -97.460814      2564972.9    
   1459000   300.16837      0.8947418      0.67474697     1.5694888      157.23429      89.571668      182.09099      194.08416     -3.109389       9.2825927      230.99662      59.382933      2.267738       2564521.6    
   1460000   299.65895      0.89322332     0.67402987     1.5672532      157.25222      89.576886      181.97915     -282.20205      22.649981      166.7489       201.22276      138.91871     -143.40482      2563388.2    
   1461000   300.16378      0.8947281      0.67763814     1.5723662      157.19945      89.58304       182.06346      171.50322     -100.95651      47.241743      55.963391      56.488192      89.308262      2563891.3    
   1462000   300.26615      0.89503324     0.67615627     1.5711895      157.25644      89.56835       182.09        -93.24249       175.36583     -37.847523      98.805848      76.561934     -25.992321      2564774.1    
   1463000   300.08248      0.89448578     0.67880761     1.5732934      157.33243      89.611692      182.1312      -116.95722     -324.26195     -13.776994      189.96185      139.6759      -265.95863      2567835.9    
   1464000   300.29751      0.89512674     0.67751859     1.5726453      157.27047      89.582643      182.00368      207.86752      155.79276     -85.12564      -381.00464      144.78403      34.131845      2564196.1    
   1465000   300.15486      0.89470151     0.67712384     1.5718254      157.24214      89.601051      182.03357     -97.174535      8.7496677     -24.65679      -136.71597     -10.702715     -112.39259      2564682.2    
   1466000   300.38384      0.89538405     0.67495428     1.5703383      157.20823      89.637425      181.93764     -429.98905     -223.95269      70.213872     -58.491974      85.319933     -119.76803      2563818.1    
   1467000   299.95446      0.89410416     0.67501789     1.569122       157.24319      89.595295      182.05414      93.379031     -256.54201      47.341101     -51.683329      151.02938     -271.06308      2564824.2    
   1468000   300.49417      0.89571293     0.67857502     1.574288       157.36173      89.611029      181.99718     -429.92505     -218.38881     -70.300289     -91.041524      73.741151     -71.232906      2566405.2    
   1469000   300.49532      0.89571636     0.67299316     1.5687095      157.27501      89.571489      182.05363      290.00672     -72.745239     -225.614        36.995769      14.629573     -121.8915       2564654.5    
   1470000   299.66351      0.8932369      0.67702069     1.5702576      157.26813      89.558765      182.19736     -76.853469     -100.60515     -249.48443     -198.72793      237.64923     -122.69713      2566202.3    
   1471000   300.47608      0.89565902     0.67595447     1.5716135      157.32487      89.568435      182.01711     -16.551175      87.159343      47.768896      220.76674      270.08932     -113.16478      2564865.4    
   1472000   299.11085      0.89158954     0.67858889     1.5701784      157.26224      89.601193      182.13891     -304.81998      10.243269     -12.383597     -11.835865      228.98418     -269.53795      2566498.3    
   1473000   299.65033      0.89319761     0.67965236     1.57285        157.34151      89.623034      182.04545      351.95226     -107.50463      224.69226      212.12987     -93.663294     -154.00614      2567099.9    
   1474000   299.7999       0.89364344     0.67532183     1.5689653      157.24707      89.638793      181.94438      76.451203     -445.23399      68.981583     -175.04807      224.99254     -11.267234      2564585.7    
   1475000   300.67648      0.89625636     0.67911139     1.5753677      157.33142      89.665364      182.13688      46.853792     -97.419934      61.676178     -146.49213      64.116348      28.428358      2569437.6    
   1476000   299.92757      0.89402401     0.67544602     1.56947        157.29366      89.591183      182.1235       280.90984      137.58275     -208.5613      -118.1091       239.3009      -91.104272      2566507.1    
   1477000   299.92819      0.89402585     0.67587887     1.5699047      157.35476      89.604991      182.11179     -13.10039       92.73761       124.69511      97.454465      67.654643     -108.29533      2567734.6    
   1478000   300.04487      0.89437366     0.67800347     1.5723771      157.33954      89.60801       181.91694     -178.399        6.9191628      50.175992      239.49127      268.37503     -180.45057      2564825.6    
   1479000   299.75134      0.89349871     0.67717447     1.5706732      157.32571      89.610587      181.95836     -370.28146      145.70759      231.21344     -50.690616      89.730229     -196.0388       2565257.9    
   1480000   300.41819      0.89548644     0.67756381     1.5730502      157.26837      89.571256      182.13269      41.615037      82.070658      109.3854      -371.83877      214.10302     -81.115831      2565653.2    
   1481000   300.33749      0.89524589     0.67665131     1.5718972      157.38371      89.499042      182.05142     -59.399878      224.88797      68.319428      91.374688      193.41497     -282.28269      2564320.1    
   1482000   299.6802       0.89328664     0.68016324     1.5734499      157.33793      89.604012      182.15808     -87.807421     -169.99105     -191.6032       122.93887      265.96734     -94.223076      2568084.6    
   1483000   300.99342      0.89720111     0.67316734     1.5703685      157.28692      89.580516      182.06507     -36.358702      111.98637     -149.01649     -1.0325994     -132.8062      -161.61813      2565268.3    
   1484000   299.46563      0.89264707     0.67347542     1.5661225      157.37177      89.533517      182.01307     -44.091557      104.01915      1.5509119     -103.94073      117.59417     -31.695404      2564572.8    
   1485000   299.19943      0.89185359     0.67764535     1.5694989      157.19981      89.565973      182.10825      700.68456      80.482566      286.49706     -232.19609      208.43301     -28.107801      2564039.4    
   1486000   300.57718      0.89596038     0.67503711     1.5709975      157.23442      89.611371      182.07187     -3.4605062      67.317937      300.75176      111.89389      253.67092     -26.169036      2565391.3    
   1487000   300.47091      0.89564359     0.67626417     1.5719078      157.27325      89.619614      182.06827      19.66638       220.42448      246.05572     -138.19926      5.1702446     -43.718857      2566209.9    
   1488000   300.42747      0.89551412     0.67613155     1.5716457      157.22291      89.630201      182.17164     -326.8929      -75.084786      92.80173       81.142678      129.97478     -180.49894      2567148.4    
   1489000   299.38045      0.89239317     0.67621119     1.5686044      157.28721      89.625616      182.03568      42.522472      2.4259892     -11.793142     -86.873897      81.91707      -307.44294      2566150.2    
   1490000   300.28465      0.89508838     0.68066465     1.575753       157.34974      89.623674      182.04076      398.35877      19.535533      81.837014     -40.05571       233.87912     -262.60897      2567186.5    
   1491000   300.35961      0.89531184     0.67584497     1.5711568      157.25122      89.59124       182.08994      83.719163      317.81663      152.18636     -96.809903      144.07172      9.5616481      2565343.6    
   1492000   301.0604       0.89740074     0.67602488     1.5734256      157.42586      89.567777      182.03302     -10.797439      83.267886     -176.61152      200.50349      154.38697      57.907418      2566717.4    
   1493000   300.63006      0.896118       0.67638056     1.5724986      157.28218      89.626958      182.17032      11.673402      74.327119     -68.893049      241.59791      240.26426     -102.39802      2568004.7    
   1494000   300.53394      0.89583148     0.67858        1.5744115      157.26279      89.596628      182.17239      125.91157     -284.78491     -89.263968      133.12693      104.03198     -286.72945      2566848.2    
   1495000   300.12512      0.89461286     0.67738339     1.5719962      157.3372       89.569755      182.13285      258.34054      388.85057     -184.1751      -105.962        312.79446     -106.21601      2566735.3    
   1496000   300.47537      0.8956569      0.67777003     1.5734269      157.26033      89.6106        182.05563     -38.598728     -9.4819879     -20.430866     -215.72186      408.66295     -254.88395      2565562.9    
   1497000   299.33875      0.89226885     0.67635926     1.5686281      157.28235      89.579304      181.96479      442.33314      23.960668     -66.227221     -233.57633      135.61334     -82.41262       2563746.1    
   1498000   299.90573      0.89395891     0.67811844     1.5720773      157.19555      89.570981      181.91321     -87.085093      63.050354      44.586541     -30.717857      166.27705     -189.7325       2561366.9    
   1499000   299.97292      0.89415918     0.67673547     1.5708946      157.27872      89.577877      182.08917     -206.38344      280.42036     -351.19073      54.430312      246.14248     -164.19629      2565398.6    
   1500000   299.11571      0.89160403     0.6785207      1.5701247      157.28222      89.581497      182.05245     -216.09466     -420.76677     -8.3834008      123.37723      123.81944     -60.560875      2565041.9    
Loop time of 17499.5 on 256 procs for 1500000 steps with 288000 atoms

Performance: 7.406 ns/day, 3.241 hours/ns, 85.717 timesteps/s, 24.686 Matom-step/s
99.4% CPU use with 256 MPI tasks x no OpenMP threads

MPI task timing breakdown:
Section |  min time  |  avg time  |  max time  |%varavg| %total
---------------------------------------------------------------
Pair    | 7067.4     | 7182.3     | 7358.6     |  56.7 | 41.04
Bond    | 306.44     | 317.17     | 338.1      |  38.3 |  1.81
Kspace  | 2698.8     | 2991.1     | 3221.4     | 209.8 | 17.09
Neigh   | 3516       | 3629       | 3746.9     |  98.8 | 20.74
Comm    | 2102       | 2413       | 2841.1     | 402.8 | 13.79
Output  | 1.2191     | 3.2494     | 3.4755     |  10.5 |  0.02
Modify  | 691.89     | 816.5      | 925.34     | 208.2 |  4.67
Other   |            | 147.1      |            |       |  0.84

Nlocal:           1125 ave        1151 max        1090 min
Histogram: 1 2 13 21 42 66 58 30 16 7
Nghost:        7538.42 ave        7619 max        7432 min
Histogram: 1 5 13 25 36 63 59 33 13 8
Neighs:         266034 ave      274652 max      256365 min
Histogram: 2 4 16 32 53 63 48 27 6 5

Total # of neighbors = 68104615
Ave neighs/atom = 236.47436
Ave special neighs/atom = 9.4
Neighbor list builds = 202797
Dangerous builds = 18
unfix           3

#======================== unload
#variable 	yz_new		equal	yz
#variable	yz_nn		equal	${yz_new}
#variable	difference	equal	${yz_nn}-${yzzo}
#variable	ratio		equal	v_difference/v_yz_nn
#variable	srate2		equal	v_ratio/${steps}
#print "yz ${yz_nn}"
#print "strainrate ${srate2}"


#fix             4 all deform 1 yz erate -${srate2} units box remap x
#fix             4 all deform 1 xz erate -${srate} units box remap x flip no
#fix             3 all deform 1 xz erate ${srate1} yz erate -${srate2} units box remap x flip no
#run             ${steps}
#unfix           4

#unfix           7  # box_parameters.dat
#unfix           6  # center.dat
#unfix           2  # output.dat
#unfix           1
#======================NPT equilibration
#fix             5 all nph tri ${patm} ${patm} ${pdamp} fixedpoint ${xcm} ${ycm} ${zcm} flip no
#run             ${trelax}
#unfix           5
######################################
# SIMULATION DONE
Total wall time: 5:01:15
