LAMMPS (27 Jun 2024)
include lmp.in
#smiles: Cc1c(C)c(C)c(C)c(C)c1C
units real
atom_style full

dimension 3
boundary p p p  #p p m

bond_style hybrid harmonic
angle_style hybrid harmonic
dihedral_style hybrid charmm
# special_bonds amber # same as special_bonds lj 0.0 0.0 0.5000 coul 0.0 0.0 0.83333
special_bonds amber lj 0.0 0.0 0.50000 coul 0.0 0.0 0.83333 angle yes dihedral no
box tilt large

The 'box' command has been removed and will be ignored


read_data lmp.dat
Reading data file ...
  triclinic box = (0 0 0) to (30.8471 17.6224 57.5148) with tilt (0.0233 -6.027 -0.9687)
  8 by 4 by 8 MPI processor grid
  reading atoms ...
  3840 atoms
  reading velocities ...
  3840 velocities
  scanning bonds ...
  4 = max bonds/atom
  scanning angles ...
  6 = max angles/atom
  scanning dihedrals ...
  8 = max dihedrals/atom
  triclinic box = (0 0 0) to (30.8471 17.6224 57.5148) with tilt (0.0233 -6.027 -0.9687)
  8 by 4 by 8 MPI processor grid
  reading bonds ...
  3840 bonds
  reading angles ...
  6912 angles
  reading dihedrals ...
  3840 dihedrals
Finding 1-2 1-3 1-4 neighbors ...
  special bond factors lj:    0        0        0.5     
  special bond factors coul:  0        0        0.83333 
     4 = max # of 1-2 neighbors
     7 = max # of 1-3 neighbors
    17 = max # of 1-4 neighbors
  13824 = # of 1-3 neighbors before angle trim
  13824 = # of 1-3 neighbors after angle trim
    19 = max # of special neighbors
  special bonds CPU = 0.525 seconds
  read_data CPU = 0.592 seconds

neighbor 2.0 multi
neigh_modify every 2 delay 4 check yes
#neigh_modify every 2 delay 10

pair_style lj/cut/coul/long 9.0 9.0
pair_modify mix arithmetic shift no tail yes
kspace_style pppm 0.0005
kspace_modify gewald 0.29202898720871845 mesh 32 32 60 order 6

pair_coeff 1 1   0.1094000   3.3996695
pair_coeff 2 2   0.0860000   3.3996695
pair_coeff 3 3   0.0157000   2.6495328

#pair_modify mix arithmetic
thermo_style custom step temp vol press etotal pe ke epair ecoul elong evdwl ebond eangle edihed eimp emol etail #    cella cellb cellc cellalpha cellbeta cellgamma density pxx pyy pzz pxy pxy pyz
thermo_modify lost ignore flush yes

#compute peatom all pe/atom
#dump 1 all custom 1 dump.lammpstrj id type q x y z fx fy fz c_peatom element
#dump_modify 1 sort id pad 9 element C C H

#minimize 1e-5 1e-5 100 100
#run 0

variable temperature equal      300.000
variable patm equal        1.000
variable dt equal        1.000
variable trelax equal   50000.000
variable deform_steps equal       50.000
variable ele_string string "C C H"
variable strain_total equal        0.30
variable strainrate equal 2.000000e+08
variable direction1 string yz
variable direction2 string xz
replicate  6 6 3
Replication is creating a 6x6x3 = 108 times larger system...
  triclinic box = (0 0 0) to (185.0826 105.7344 172.5444) with tilt (0.1398 -18.081 -2.9061)
  8 by 4 by 8 MPI processor grid
  414720 atoms
  414720 bonds
  746496 angles
  414720 dihedrals
Finding 1-2 1-3 1-4 neighbors ...
  special bond factors lj:    0        0        0.5     
  special bond factors coul:  0        0        0.83333 
     4 = max # of 1-2 neighbors
     7 = max # of 1-3 neighbors
    17 = max # of 1-4 neighbors
  1492992 = # of 1-3 neighbors before angle trim
  1492992 = # of 1-3 neighbors after angle trim
    19 = max # of special neighbors
  special bonds CPU = 0.019 seconds
  replicate CPU = 0.057 seconds
#include lmp.in

variable srate      equal ${strainrate}/1e15
variable srate      equal 200000000/1e15
variable thermo     equal "ceil(abs(1e12 / v_strainrate))"
variable tdamp      equal 100*${dt}
variable tdamp      equal 100*1
variable pdamp      equal 1000*${dt}
variable pdamp      equal 1000*1
variable pe         equal pe

# for units real, pressure is in [atmospheres] = 0.101325 [MPa]
variable sxx        equal "-pxx*0.101325"
variable syy        equal "-pyy*0.101325"
variable szz        equal "-pzz*0.101325"
variable sxz        equal "-pxz*0.101325"
variable syz        equal "-pyz*0.101325"
variable sxy        equal "-pxy*0.101325"
variable steps      equal ceil(abs(${strain_total}/${srate}))
variable steps      equal ceil(abs(0.3/${srate}))
variable steps      equal ceil(abs(0.3/2e-07))
variable dump_steps equal ceil(${steps}/${deform_steps})
variable dump_steps equal ceil(1500000/${deform_steps})
variable dump_steps equal ceil(1500000/50)
variable strain     equal "step*v_srate"
variable    xcm     equal xcm(all,x)
variable    ycm     equal xcm(all,y)
variable    zcm     equal xcm(all,z)
variable    xhi     equal xhi
variable    yhi     equal yhi
variable    zhi     equal zhi
variable    xlo     equal xlo
variable    ylo     equal ylo
variable    zlo     equal zlo
variable    xy      equal xy
variable    xz      equal xz
variable    yz      equal yz


print "strainrate ${strainrate}"
strainrate 200000000
print "srate ${srate}"
srate 2e-07
print "steps ${steps}"
steps 1500000
print "dump_steps ${dump_steps}"
dump_steps 30000


thermo          1000
neighbor        1.0    bin
neigh_modify    every 1 delay 5 check yes
thermo_style    custom step temp ke pe etotal lx ly lz pxx pyy pzz pxy pxz pyz
WARNING: New thermo_style command, previous thermo_modify settings will be lost (../output.cpp:904)
thermo_modify   lost warn norm yes
timestep 	    ${dt}
timestep 	    1

#======================== Energy minimization
min_style       cg
minimize        1.0e-25 1.0e-25 100 100000

CITE-CITE-CITE-CITE-CITE-CITE-CITE-CITE-CITE-CITE-CITE-CITE-CITE

Your simulation uses code contributions which should be cited:

- Type Label Framework: https://doi.org/10.1021/acs.jpcb.3c08419

@Article{Gissinger24,
 author = {Jacob R. Gissinger, Ilia Nikiforov, Yaser Afshar, Brendon Waters, Moon-ki Choi, Daniel S. Karls, Alexander Stukowski, Wonpil Im, Hendrik Heinz, Axel Kohlmeyer, and Ellad B. Tadmor},
 title = {Type Label Framework for Bonded Force Fields in LAMMPS},
 journal = {J. Phys. Chem. B},
 year =    2024,
 volume =  128,
 number =  13,
 pages =   {3282â€“-3297}
}

- neighbor multi command: doi:10.1016/j.cpc.2008.03.005, doi:10.1007/s40571-020-00361-2

@Article{Intveld08,
 author =  {in 't Veld, P. J. and S. J.~Plimpton and G. S. Grest},
 title =   {Accurate and Efficient Methods for Modeling Colloidal
            Mixtures in an Explicit Solvent using Molecular Dynamics},
 journal = {Comput.\ Phys.\ Commut.},
 year =    2008,
 volume =  179,
 pages =   {320--329}
}

@article{Shire2020,
 author = {Shire, Tom and Hanley, Kevin J. and Stratford, Kevin},
 title = {{DEM} Simulations of Polydisperse Media: Efficient Contact
          Detection Applied to Investigate the Quasi-Static Limit},
 journal = {Computational Particle Mechanics},
 year = {2020}
@article{Monti2022,
 author = {Monti, Joseph M. and Clemmer, Joel T. and Srivastava, 
           Ishan and Silbert, Leonardo E. and Grest, Gary S. 
           and Lechman, Jeremy B.},
 title = {Large-scale frictionless jamming with power-law particle 
          size distributions},
 journal = {Phys. Rev. E},
 volume = {106}
 issue = {3}
 year = {2022}
}

CITE-CITE-CITE-CITE-CITE-CITE-CITE-CITE-CITE-CITE-CITE-CITE-CITE

Switching to 'neigh_modify every 1 delay 0 check yes' setting during minimization
PPPM initialization ...
  using 12-bit tables for long-range coulomb (../kspace.cpp:342)
  G vector (1/distance) = 0.29202899
  grid = 32 32 60
  stencil order = 6
  estimated absolute RMS force accuracy = 2.8571248
  estimated relative force accuracy = 0.0086041466
  using double precision KISS FFT
  3d grid and FFT values/proc = 2310 256
Generated 3 of 3 mixed pair_coeff terms from arithmetic mixing rule
Neighbor list info ...
  update: every = 1 steps, delay = 0 steps, check = yes
  max neighbors/atom: 2000, page size: 100000
  master list distance cutoff = 10
  ghost atom cutoff = 10
  binsize = 5, bins = 41 22 35
  1 neighbor lists, perpetual/occasional/extra = 1 0 0
  (1) pair lj/cut/coul/long, perpetual
      attributes: half, newton on
      pair build: half/bin/newton/tri
      stencil: half/bin/3d/tri
      bin: standard
Per MPI rank memory allocation (min/avg/max) = 17.26 | 17.26 | 17.27 Mbytes
   Step          Temp          KinEng         PotEng         TotEng           Lx             Ly             Lz            Pxx            Pyy            Pzz            Pxy            Pxz            Pyz      
         0   0              0              4.2825885      4.2825885      185.0826       105.7344       172.5444       137338.95      121512.06      216523.6      -4296.0927     -4806.8582      2648.8182    
        66   0              0             -0.29790531    -0.29790531     185.0826       105.7344       172.5444      -3083.867      -2732.5982      932.45944     -920.37903     -782.45777      327.3653     
Loop time of 2.92648 on 256 procs for 66 steps with 414720 atoms

98.4% CPU use with 256 MPI tasks x no OpenMP threads

Minimization stats:
  Stopping criterion = linesearch alpha is zero
  Energy initial, next-to-last, final = 
      4.28258852997219  -0.29790530902869 -0.297905309028693
  Force two-norm initial, final = 59619.755 27.935035
  Force max component initial, final = 140.90257 0.10194492
  Final line search alpha, max atom move = 6.5855622e-06 6.7136463e-07
  Iterations, force evaluations = 66 163

MPI task timing breakdown:
Section |  min time  |  avg time  |  max time  |%varavg| %total
---------------------------------------------------------------
Pair    | 1.7588     | 1.8229     | 2.0397     |   2.2 | 62.29
Bond    | 0.045002   | 0.045734   | 0.050221   |   0.2 |  1.56
Kspace  | 0.41811    | 0.66834    | 0.73384    |   4.3 | 22.84
Neigh   | 0          | 0          | 0          |   0.0 |  0.00
Comm    | 0.23213    | 0.26902    | 0.32239    |   4.1 |  9.19
Output  | 0          | 0          | 0          |   0.0 |  0.00
Modify  | 0          | 0          | 0          |   0.0 |  0.00
Other   |            | 0.1205     |            |       |  4.12

Nlocal:           1620 ave        1620 max        1620 min
Histogram: 256 0 0 0 0 0 0 0 0 0
Nghost:           9027 ave        9045 max        9009 min
Histogram: 128 0 0 0 0 0 0 0 0 128
Neighs:         413478 ave      414651 max      412306 min
Histogram: 9 19 4 36 54 71 33 6 15 9

Total # of neighbors = 1.0585037e+08
Ave neighs/atom = 255.23333
Ave special neighs/atom = 9.4
Neighbor list builds = 0
Dangerous builds = 0
#fix             BoxRelax all box/relax tri 0.0  vmax 0.01 nreset 10 fixedpoint ${xcm} ${ycm} ${zcm}
#minimize        1.0e-25 1.0e-25 100 100# 000 1000000
#unfix           BoxRelax
dump            1 all custom 10000 0.dump element id mol type x y z
undump          1

#========================= Global setting for NPT simulation
fix             langevin all langevin ${temperature} ${temperature} ${tdamp} 32258453 zero yes
fix             langevin all langevin 300 ${temperature} ${tdamp} 32258453 zero yes
fix             langevin all langevin 300 300 ${tdamp} 32258453 zero yes
fix             langevin all langevin 300 300 100 32258453 zero yes

#======================== NPT equilibration
velocity        all create ${temperature} 1938072 mom yes rot no
velocity        all create 300 1938072 mom yes rot no
#fix             1 all npt temp ${temperature} ${temperature} ${tdamp} iso ${pressure} ${pressure} ${pdamp}
fix             1 all nph tri ${patm} ${patm} ${pdamp} fixedpoint ${xcm} ${ycm} ${zcm} flip no
fix             1 all nph tri 1 ${patm} ${pdamp} fixedpoint ${xcm} ${ycm} ${zcm} flip no
fix             1 all nph tri 1 1 ${pdamp} fixedpoint ${xcm} ${ycm} ${zcm} flip no
fix             1 all nph tri 1 1 1000 fixedpoint ${xcm} ${ycm} ${zcm} flip no
fix             1 all nph tri 1 1 1000 fixedpoint 86.4620903653394 ${ycm} ${zcm} flip no
fix             1 all nph tri 1 1 1000 fixedpoint 86.4620903653394 51.0010969797264 ${zcm} flip no
fix             1 all nph tri 1 1 1000 fixedpoint 86.4620903653394 51.0010969797264 86.2722299428767 flip no

dump            1 all custom 20000 equilibrium.*.dump element id mol type x y z
dump_modify     1 element ${ele_string}
dump_modify     1 element C C H
run             ${trelax}
run             50000
PPPM initialization ...
  using 12-bit tables for long-range coulomb (../kspace.cpp:342)
  G vector (1/distance) = 0.29202899
  grid = 32 32 60
  stencil order = 6
  estimated absolute RMS force accuracy = 2.8571248
  estimated relative force accuracy = 0.0086041466
  using double precision KISS FFT
  3d grid and FFT values/proc = 2310 256
Generated 3 of 3 mixed pair_coeff terms from arithmetic mixing rule
Per MPI rank memory allocation (min/avg/max) = 16.13 | 16.14 | 16.14 Mbytes
   Step          Temp          KinEng         PotEng         TotEng           Lx             Ly             Lz            Pxx            Pyy            Pzz            Pxy            Pxz            Pyz      
        66   300            0.89424086    -0.29790531     0.59633555     185.0826       105.7344       172.5444       1936.1799      2288.2198      5953.5316     -915.01976     -777.79983      338.82374    
      1000   299.15114      0.89171057     0.6376395      1.5293501      187.01314      106.86303      177.01804      1220.0525      746.8448       3154.4328     -172.95873     -345.24868     -142.74555    
      2000   299.55287      0.89290806     0.65918426     1.5520923      188.05951      107.29145      179.69589      244.94821     -82.016403      1205.7198     -65.899354     -182.33029     -27.678196    
      3000   299.72744      0.89342841     0.66941451     1.5628429      188.49172      107.38955      181.16577      54.398617      47.026         353.73159     -82.925292     -70.467215     -172.82379    
      4000   299.87966      0.89388215     0.67200315     1.5658853      188.63404      107.41023      181.76147     -214.53727     -353.09135      135.72612     -132.22037     -207.2471      -128.9693     
      5000   300.13398      0.89464023     0.67503084     1.5696711      188.75902      107.42384      181.99131     -77.43922      -78.869194      64.852979     -22.274742      0.46428072    -76.491933    
      6000   300.27024      0.8950464      0.6748825      1.5699289      188.79549      107.44555      181.99241      383.63696     -5.3990097      3.3259899     -70.275156     -126.42354     -41.462017    
      7000   299.91246      0.89397993     0.67615869     1.5701386      188.81427      107.43446      181.9949      -25.048655     -107.82245      34.960608      87.601957     -62.419121      54.688307    
      8000   300.06104      0.89442282     0.67734061     1.5717634      188.82598      107.42832      182.07591      167.8975      -24.243888     -37.309229     -62.910228      38.994074      62.494398    
      9000   300.9089       0.89695012     0.67295601     1.5699061      188.73905      107.41974      182.0693       72.153589      66.476698      211.93189     -30.833636      80.321607      101.24745    
     10000   299.1125       0.8915954      0.67502447     1.5666199      188.85254      107.44021      182.13895     -139.09378      28.0463       -81.055427     -123.88399      20.714478      53.818667    
     11000   299.73874      0.89346209     0.67463632     1.5680984      188.85563      107.4577       182.05601     -52.44521      -137.69641      119.05594     -102.68106      14.885307      47.995424    
     12000   300.54321      0.89586005     0.6731105      1.5689706      188.73718      107.38983      181.96338      487.05004      230.78493      157.51128     -99.085571     -68.115429     -112.81114    
     13000   300.7302       0.89641743     0.67319053     1.569608       188.81464      107.4294       182.03138      344.16048      109.36942      67.428003      32.131035      15.40293       16.219627    
     14000   299.64481      0.8931821      0.67600509     1.5691872      188.82858      107.42303      182.0403      -15.725563     -210.59616     -16.844477     -107.73402      51.585281      94.790899    
     15000   299.6498       0.89319697     0.67313426     1.5663312      188.70211      107.4301       182.0828      -4.0498255     -44.966986     -13.421077     -52.83274       85.18994      -109.22326    
     16000   299.75297      0.89350452     0.67572065     1.5692252      188.80339      107.48082      182.03883     -33.770373     -51.871867     -114.19493     -155.98755     -48.297062      66.720151    
     17000   300.7842       0.89657842     0.67674362     1.573322       188.77408      107.4617       182.0194       30.153148      19.923928     -47.469101      314.73964      84.432914      71.432204    
     18000   299.95743      0.89411397     0.67370981     1.5678238      188.85257      107.42405      181.96838     -16.355045     -160.03674     -23.883235     -67.564534      19.986247      16.884298    
     19000   300.6516       0.89618314     0.6738866      1.5700697      188.86327      107.40668      182.03885      42.00733       95.5482       -99.154363      24.75801      -51.259036      100.29495    
     20000   300.0387       0.8943562      0.67727334     1.5716295      188.85142      107.41433      182.17154     -225.31188      196.32153      68.003502     -99.723996     -98.949634     -13.443621    
     21000   299.35761      0.89232603     0.67527299     1.567599       188.75718      107.43211      182.09331      171.64505      59.034283     -99.925016     -129.59108     -21.36674       73.108423    
     22000   300.21501      0.89488177     0.67616416     1.5710459      188.82344      107.46608      182.06235     -50.43781      -69.661105     -22.257982     -69.504324     -31.68908      -52.991662    
     23000   299.90418      0.89395525     0.67765528     1.5716105      188.83872      107.44896      182.0019      -79.306571     -127.14328      165.10895      60.60756      -111.63648     -39.215666    
     24000   299.5457       0.89288668     0.67699725     1.5698839      188.76205      107.45259      181.97275      30.888921     -89.085257      98.740728     -69.935359      193.27457      76.144989    
     25000   300.51495      0.89577584     0.67560498     1.5713808      188.85696      107.43642      182.01277     -280.46663      302.17542     -49.355684      8.6724844      73.369155     -132.18498    
     26000   300.28399      0.89508739     0.67802799     1.5731154      188.71562      107.47925      182.11695      92.230348     -230.25205     -145.2457       85.13672      -58.231816     -46.888861    
     27000   299.78196      0.89359093     0.67606666     1.5696576      188.65417      107.47671      182.02059      45.233385      226.17864     -132.49265      41.751036     -11.240277      87.982763    
     28000   300.15416      0.89470038     0.67667597     1.5713764      188.81634      107.48278      182.03842     -232.01599     -160.85624     -59.98015       80.085046     -81.360134     -60.039095    
     29000   300.19595      0.89482494     0.67646613     1.5712911      188.80748      107.43325      182.06071      413.36773      392.57377      44.482562     -63.121527      142.59481      20.749136    
     30000   300.28454      0.89508903     0.67758708     1.5726761      188.88456      107.45531      182.10681      77.44174       24.263186     -215.34584      104.42509     -141.75849      35.224417    
     31000   300.04796      0.89438382     0.67604415     1.570428       188.76966      107.46783      181.95507      297.449       -3.7867571      31.679694     -113.70696     -14.359561      52.543841    
     32000   299.15155      0.8917118      0.67520859     1.5669204      188.79829      107.46932      182.04585     -193.0329       160.38815     -90.20136       271.07091      74.546065      29.688485    
     33000   300.43469      0.89553658     0.67799139     1.573528       188.73962      107.47784      181.99001      153.16284     -23.011525      34.966703      177.78345      112.74231     -14.351027    
     34000   300.21034      0.89486784     0.67593208     1.5707999      188.75871      107.43895      181.86502     -29.377344      62.988097     -85.707418     -6.4276547     -39.832106     -80.341006    
     35000   300.22796      0.89492036     0.67691876     1.5718391      188.78578      107.46085      181.97074     -130.62944     -67.813544     -37.50117      -145.4821       36.352644     -34.780664    
     36000   299.99761      0.89423373     0.67548312     1.5697169      188.8799       107.47626      181.95938     -92.069443      148.18126      3.6394708     -62.865255      63.651672     -6.9918236    
     37000   300.32926      0.89522232     0.67565709     1.5708794      188.71674      107.41581      181.99197     -10.515232     -80.855973     -164.41544     -158.96538     -34.476644      37.082086    
     38000   300.10071      0.89454106     0.67686614     1.5714072      188.8243       107.41172      182.09423     -333.83317     -165.49437     -76.4157       -309.22081      40.405622      94.251773    
     39000   300.54805      0.89587449     0.67488057     1.5707551      188.84142      107.39297      182.00915     -83.542186     -110.58917     -102.15268     -210.75134      46.491518      82.887364    
     40000   300.02766      0.8943233      0.67456454     1.5688878      188.76906      107.41092      182.08547      197.7301      -87.467079     -138.14541      72.326025     -12.983386      83.04631     
     41000   300.42726      0.89551442     0.67598232     1.5714967      188.8197       107.44536      182.04581      153.64128      230.66991      88.626262     -123.76365      39.31764      -86.438187    
     42000   300.18925      0.89480498     0.67377769     1.5685827      188.74709      107.43684      182.02927      160.03076     -13.834525     -47.846257     -29.906398     -6.9277437     -27.164733    
     43000   300.16019      0.89471836     0.67499552     1.5697139      188.78362      107.45027      182.00389     -119.81456     -128.77371      52.60871      -70.714371     -115.9509       118.55425    
     44000   299.71975      0.8934055      0.67454688     1.5679524      188.681        107.47578      182.05346      39.267152     -187.85755      113.3157       23.366737     -47.548159      23.528179    
     45000   299.91098      0.89397551     0.67675785     1.5707334      188.77461      107.43         181.94276     -299.36531     -288.10395     -170.12476     -251.58467     -71.353711      105.09946    
     46000   299.69575      0.89333396     0.67387092     1.5672049      188.72585      107.40033      182.01744      68.456181     -310.73962      139.98317      104.05156     -59.496336     -18.486125    
     47000   299.84822      0.89378842     0.67416485     1.5679533      188.74092      107.42026      182.04689      247.18481      373.24632      13.115169      23.30118       35.417114     -97.874005    
     48000   299.85234      0.8938007      0.67587965     1.5696803      188.82761      107.42563      182.03499      75.509312     -86.064447      38.498771      8.9665731     -25.924403      167.59193    
     49000   299.61266      0.89308628     0.67616382     1.5692501      188.74792      107.4048       182.03495     -59.996566      190.05036     -258.65902      32.939656      44.501911     -75.558155    
     50000   299.54629      0.89288844     0.6755794      1.5684678      188.80866      107.44838      181.92888     -158.22627      201.49742     -41.826342     -0.2396972     -155.4278       2.9367824    
     50066   300.15078      0.8946903      0.67420195     1.5688923      188.82297      107.46697      181.92551     -10.655466      64.828491      210.97228     -40.857641     -131.48732      53.938005    
Loop time of 770.473 on 256 procs for 50000 steps with 414720 atoms

Performance: 5.607 ns/day, 4.280 hours/ns, 64.895 timesteps/s, 26.913 Matom-step/s
99.4% CPU use with 256 MPI tasks x no OpenMP threads

MPI task timing breakdown:
Section |  min time  |  avg time  |  max time  |%varavg| %total
---------------------------------------------------------------
Pair    | 337.91     | 342.64     | 352.56     |  11.3 | 44.47
Bond    | 15.209     | 15.422     | 16.025     |   2.9 |  2.00
Kspace  | 107.08     | 118.88     | 126.25     |  38.5 | 15.43
Neigh   | 166.52     | 171.35     | 175.21     |  17.3 | 22.24
Comm    | 79.252     | 91.231     | 108.22     |  76.9 | 11.84
Output  | 0.019733   | 0.037933   | 0.052465   |   4.8 |  0.00
Modify  | 19.929     | 26.005     | 29.669     |  52.2 |  3.38
Other   |            | 4.901      |            |       |  0.64

Nlocal:           1620 ave        1644 max        1596 min
Histogram: 2 7 20 45 52 58 38 24 8 2
Nghost:        8469.58 ave        8581 max        8380 min
Histogram: 11 17 40 44 42 43 27 23 6 3
Neighs:         383148 ave      390961 max      377327 min
Histogram: 13 24 28 53 45 45 21 18 7 2

Total # of neighbors = 98085975
Ave neighs/atom = 236.51132
Ave special neighs/atom = 9.4
Neighbor list builds = 6916
Dangerous builds = 1
unfix           1
undump          1

variable	yzv 	equal	yz
variable	yzzo	equal	${yzv}
variable	yzzo	equal	-6.30576165965616

#========================DEFORMATION
reset_timestep  0
dump            1 all custom ${dump_steps} shear.*.dump element id mol type x y z
dump            1 all custom 30000 shear.*.dump element id mol type x y z
dump_modify     1 element ${ele_string}
dump_modify     1 element C C H
compute         cc1 all chunk/atom molecule
compute         myChunk all com/chunk cc1

fix             1 all nph x ${patm} ${patm} ${pdamp}  y ${patm} ${patm} ${pdamp} z ${patm} ${patm} ${pdamp} xz ${patm} ${patm} ${pdamp} fixedpoint ${xcm} ${ycm} ${zcm}
fix             1 all nph x 1 ${patm} ${pdamp}  y ${patm} ${patm} ${pdamp} z ${patm} ${patm} ${pdamp} xz ${patm} ${patm} ${pdamp} fixedpoint ${xcm} ${ycm} ${zcm}
fix             1 all nph x 1 1 ${pdamp}  y ${patm} ${patm} ${pdamp} z ${patm} ${patm} ${pdamp} xz ${patm} ${patm} ${pdamp} fixedpoint ${xcm} ${ycm} ${zcm}
fix             1 all nph x 1 1 1000  y ${patm} ${patm} ${pdamp} z ${patm} ${patm} ${pdamp} xz ${patm} ${patm} ${pdamp} fixedpoint ${xcm} ${ycm} ${zcm}
fix             1 all nph x 1 1 1000  y 1 ${patm} ${pdamp} z ${patm} ${patm} ${pdamp} xz ${patm} ${patm} ${pdamp} fixedpoint ${xcm} ${ycm} ${zcm}
fix             1 all nph x 1 1 1000  y 1 1 ${pdamp} z ${patm} ${patm} ${pdamp} xz ${patm} ${patm} ${pdamp} fixedpoint ${xcm} ${ycm} ${zcm}
fix             1 all nph x 1 1 1000  y 1 1 1000 z ${patm} ${patm} ${pdamp} xz ${patm} ${patm} ${pdamp} fixedpoint ${xcm} ${ycm} ${zcm}
fix             1 all nph x 1 1 1000  y 1 1 1000 z 1 ${patm} ${pdamp} xz ${patm} ${patm} ${pdamp} fixedpoint ${xcm} ${ycm} ${zcm}
fix             1 all nph x 1 1 1000  y 1 1 1000 z 1 1 ${pdamp} xz ${patm} ${patm} ${pdamp} fixedpoint ${xcm} ${ycm} ${zcm}
fix             1 all nph x 1 1 1000  y 1 1 1000 z 1 1 1000 xz ${patm} ${patm} ${pdamp} fixedpoint ${xcm} ${ycm} ${zcm}
fix             1 all nph x 1 1 1000  y 1 1 1000 z 1 1 1000 xz 1 ${patm} ${pdamp} fixedpoint ${xcm} ${ycm} ${zcm}
fix             1 all nph x 1 1 1000  y 1 1 1000 z 1 1 1000 xz 1 1 ${pdamp} fixedpoint ${xcm} ${ycm} ${zcm}
fix             1 all nph x 1 1 1000  y 1 1 1000 z 1 1 1000 xz 1 1 1000 fixedpoint ${xcm} ${ycm} ${zcm}
fix             1 all nph x 1 1 1000  y 1 1 1000 z 1 1 1000 xz 1 1 1000 fixedpoint 85.02833104526 ${ycm} ${zcm}
fix             1 all nph x 1 1 1000  y 1 1 1000 z 1 1 1000 xz 1 1 1000 fixedpoint 85.02833104526 49.325075314052 ${zcm}
fix             1 all nph x 1 1 1000  y 1 1 1000 z 1 1 1000 xz 1 1 1000 fixedpoint 85.02833104526 49.325075314052 86.2722299428765
#fix             1 all nph tri ${patm} ${patm} ${pdamp}
fix             2 all ave/time 2 100 ${thermo} v_strain v_sxx v_syy v_szz v_sxz v_syz v_sxy v_pe file output.dat
fix             2 all ave/time 2 100 5000 v_strain v_sxx v_syy v_szz v_sxz v_syz v_sxy v_pe file output.dat
fix             6 all ave/time 2 100 ${thermo} c_myChunk[*] file center.dat mode vector
fix             6 all ave/time 2 100 5000 c_myChunk[*] file center.dat mode vector
fix             7 all print ${thermo} "${xhi} ${xlo} ${yhi} ${ylo} ${zhi} ${zlo} ${xy} ${xz} ${yz}" screen no file box_parameters.dat
fix             7 all print 5000 "${xhi} ${xlo} ${yhi} ${ylo} ${zhi} ${zlo} ${xy} ${xz} ${yz}" screen no file box_parameters.dat


#======================== load
fix             3 all deform 1 xy erate ${srate} units box remap x flip no
fix             3 all deform 1 xy erate 2e-07 units box remap x flip no
run             ${steps}
run             1500000
PPPM initialization ...
  using 12-bit tables for long-range coulomb (../kspace.cpp:342)
  G vector (1/distance) = 0.29202899
  grid = 32 32 60
  stencil order = 6
  estimated absolute RMS force accuracy = 3.4436319
  estimated relative force accuracy = 0.010370395
  using double precision KISS FFT
  3d grid and FFT values/proc = 2310 256
Generated 3 of 3 mixed pair_coeff terms from arithmetic mixing rule
Per MPI rank memory allocation (min/avg/max) = 16.4 | 16.41 | 16.41 Mbytes
   Step          Temp          KinEng         PotEng         TotEng           Lx             Ly             Lz            Pxx            Pyy            Pzz            Pxy            Pxz            Pyz      
         0   300.15078      0.8946903      0.67420195     1.5688923      188.82297      107.46697      181.92551     -10.655466      64.828491      210.97228     -40.857641     -131.48732      53.938005    
      1000   299.70907      0.89337366     0.67841424     1.5717879      188.82522      107.46235      182.05007     -41.87172       33.344603      32.671156      82.609267     -16.037235     -36.153779    
      2000   300.45483      0.89559663     0.67545984     1.5710565      188.9024       107.41817      182.09448      34.495543      56.60737      -41.683186      36.492351     -8.5801953      59.150141    
      3000   300.36581      0.89533126     0.67602516     1.5713564      188.89274      107.42322      182.10056     -33.358968      38.968904      254.80035      88.752685      32.453073      65.288404    
      4000   300.27774      0.89506875     0.67570659     1.5707753      188.78047      107.46395      182.09051     -204.53103     -296.97974     -116.54809     -250.27018     -118.98001      1.8915012    
      5000   299.59199      0.89302466     0.67537404     1.5683987      188.7794       107.47192      181.9832      -89.06901      -420.998        33.072594      2.8958439     -55.042639     -107.91613    
      6000   300.1398       0.89465759     0.67378222     1.5684398      188.73541      107.47034      181.92826     -41.764683     -6.4190186     -0.77754598    -287.88181     -155.0571       26.226173    
      7000   299.98692      0.89420188     0.67558961     1.5697915      188.78776      107.46865      181.90409     -432.05683      31.92496       87.962554      68.31546      -0.64160457    -47.442556    
      8000   300.01679      0.89429089     0.67491559     1.5692065      188.78568      107.44775      182.04407     -173.55219      103.8878      -87.32351       32.512145     -139.01527      69.63324     
      9000   299.8945       0.8939264      0.67630801     1.5702344      188.76607      107.43472      182.00779     -382.31353      109.02772      48.619893      7.9828754      29.063025     -14.149863    
     10000   300.22614      0.89491495     0.67830306     1.573218       188.81793      107.42462      182.11408     -36.896749      131.6961      -62.618863     -88.624107     -69.951965      4.2727416    
     11000   300.27745      0.89506788     0.67423986     1.5693077      188.84902      107.4081       182.09496      326.99889      159.96386     -4.3434598     -9.0859914     -27.909008     -63.579886    
     12000   300.25042      0.8949873      0.67484806     1.5698354      188.74233      107.43341      181.99297     -53.252931      212.39056     -14.45013      -243.04749      31.236119     -114.50865    
     13000   300.0774       0.89447156     0.67363982     1.5681114      188.7275       107.41887      182.1573       138.84757      204.64221     -201.26543     -40.740882      80.622929      31.211114    
     14000   300.20638      0.89485604     0.67524362     1.5700997      188.80816      107.43766      182.00548      10.805373      255.74696      64.484851     -332.49858     -43.31079       3.9130729    
     15000   299.65409      0.89320976     0.67577579     1.5689855      188.99176      107.42301      182.18742     -6.567397      -189.66579     -161.22722     -122.85655      157.83111      247.0882     
     16000   300.40417      0.89544561     0.67830828     1.5737539      188.83521      107.43241      182.13873      107.23889     -135.72218     -76.64333      -39.716846      44.268308      37.780691    
     17000   300.12134      0.89460254     0.67687984     1.5714824      188.85796      107.45333      182.08247     -286.28845     -240.79282     -80.056778     -55.30087      -5.9765922      42.602638    
     18000   301.07278      0.8974386      0.67399951     1.5714381      188.79645      107.44824      181.91837      62.182478     -185.15695      8.063678      -128.97681      6.4934703     -142.01095    
     19000   300.78432      0.89657876     0.67642505     1.5730038      188.7896       107.38436      182.00566      113.80691      71.918084     -109.34393     -314.02409     -5.8032177      0.59622014   
     20000   300.22849      0.89492193     0.67717386     1.5720958      188.72834      107.46309      182.13807     -130.37369     -279.60543      233.99394     -226.51494     -21.312268     -24.941588    
     21000   299.84009      0.89376419     0.67638833     1.5701525      188.76763      107.36948      182.06515     -202.07285     -36.75146      -161.18405     -465.01314      25.804258      83.041031    
     22000   299.81766      0.89369733     0.67389051     1.5675878      188.7847       107.45162      181.94721     -209.40514     -60.345418     -6.6595403     -322.47047     -43.211611      84.661112    
     23000   300.60006      0.89602951     0.67571873     1.5717482      188.74095      107.42424      181.92227     -185.15294      218.52371     -122.74768     -346.87116      19.387502      33.648799    
     24000   300.18693      0.89479807     0.67545665     1.5702547      188.77653      107.4725       182.16294      234.27757     -29.057333     -18.068428     -173.52644     -8.340178       52.673932    
     25000   299.98202      0.89418728     0.67447786     1.5686651      188.74979      107.46086      182.11273     -167.75101      50.673494     -128.60061     -105.88632      160.46016      81.420985    
     26000   299.99781      0.89423433     0.6771533      1.5713876      188.77004      107.44462      181.98715     -236.38274     -196.10878      125.8587      -314.30309      24.647446      20.119768    
     27000   299.98921      0.89420868     0.67429159     1.5685003      188.7413       107.44218      182.04569     -342.32012     -211.06869     -38.799109     -322.63019     -40.893031      148.93304    
     28000   300.73262      0.89642465     0.67559908     1.5720237      188.82948      107.40851      181.98096      187.12512      34.623385     -38.673813     -373.18037      62.907439     -201.17738    
     29000   300.06207      0.89442588     0.67600154     1.5704274      188.78325      107.45922      181.98036      40.683508     -234.42122      16.90667      -395.51839     -44.30001       80.559886    
     30000   300.02041      0.8943017      0.67541195     1.5697137      188.87221      107.44362      182.10361      102.41727      302.45682      48.455882     -301.96603     -6.2946633      104.36762    
     31000   300.02713      0.89432173     0.67478221     1.5691039      188.78249      107.4597       182.07956     -17.376279     -123.89901     -88.855413     -328.16647     -12.247813     -64.575845    
     32000   300.05248      0.89439729     0.67228982     1.5666871      188.80277      107.45522      182.0177      -84.569304     -240.35631     -54.12429      -384.90659      10.602417     -6.7487264    
     33000   299.8366       0.89375378     0.67280986     1.5665636      188.83266      107.46676      181.95753     -137.24192      211.7716      -22.537123     -396.51796      80.310132      86.886908    
     34000   300.286        0.89509337     0.67623817     1.5713315      188.81096      107.37146      182.11408     -279.31062     -119.12237     -79.602484     -621.61294     -125.7632       16.010822    
     35000   300.13032      0.8946293      0.67440265     1.5690319      188.85455      107.38775      182.12573     -88.290983     -22.08155      -43.111782     -303.85475     -190.70206      63.273147    
     36000   300.16256      0.89472541     0.67516932     1.5698947      188.75658      107.41012      182.07992     -35.636827     -59.998955     -87.91309      -511.64432     -131.22598     -140.78309    
     37000   300.20288      0.8948456      0.67574395     1.5705896      188.74363      107.41308      182.1576      -263.08806      173.99275     -231.71232     -415.88648     -113.9779      -64.321022    
     38000   299.75153      0.89350021     0.67481232     1.5683125      188.82814      107.38335      182.04548      11.713591     -123.31465     -103.03383     -438.39634      3.1455794      99.114676    
     39000   300.24231      0.89496314     0.67597312     1.5709363      188.86723      107.39279      182.05612      80.595746     -170.40531      238.50973     -438.72625     -1.6034518     -62.998432    
     40000   299.24657      0.89199503     0.67707226     1.5690673      188.9439       107.4037       182.13965      192.94507      63.081161     -51.959574     -615.18591     -29.031438     -67.530362    
     41000   300.36599      0.89533179     0.67532287     1.5706547      188.87822      107.44247      182.08774     -384.5207       22.715731     -49.075718     -406.58383     -91.283407      20.673747    
     42000   300.49842      0.89572655     0.67718713     1.5729137      188.83611      107.41589      182.12421     -97.6679        207.04167      13.790605     -589.20794     -34.730807      45.505236    
     43000   299.95351      0.89410229     0.6759097      1.570012       188.85631      107.43094      182.19909     -70.605594      255.4092      -79.743312     -666.50454      4.8925848      90.801926    
     44000   299.34895      0.8923002      0.67594643     1.5682466      188.86873      107.42916      182.00228      186.19859     -57.027497     -115.50889     -498.04633     -70.173926      65.07179     
     45000   300.2839       0.89508711     0.67605554     1.5711427      188.84799      107.43013      182.04263     -78.198878     -43.806924     -8.4392937     -471.85533     -15.090873     -62.336196    
     46000   300.0766       0.89446919     0.67519403     1.5696632      188.89073      107.38074      182.0015      -38.579231      159.58341      30.203054     -763.22383     -100.0787       43.220709    
     47000   299.73557      0.89345265     0.67512221     1.5685749      188.88942      107.42096      182.04568      111.31763     -67.541657      142.04685     -485.27225     -165.36371     -87.573507    
     48000   300.04774      0.89438315     0.6771199      1.5715031      188.87036      107.43397      181.99694      41.733163      33.171828     -346.95295     -688.03867     -44.139824     -11.197295    
     49000   300.31616      0.89518326     0.67560127     1.5707845      188.7485       107.42895      182.00668      69.561034      293.95569     -151.70469     -684.9068       88.720001      47.805062    
     50000   299.38519      0.89240823     0.67751313     1.5699214      188.75479      107.45186      182.07565      9.2025316     -145.39415     -192.83407     -475.49853      61.59862      -34.914153    
     51000   299.23474      0.89195976     0.67515228     1.567112       188.82772      107.41612      182.05077     -127.19244     -130.40688      59.360754     -755.60265     -36.212068     -15.991345    
     52000   300.06581      0.89443703     0.67640981     1.5708468      188.83325      107.44299      182.07245      177.01645      122.73663      49.199206     -628.46354      72.940846     -78.721384    
     53000   300.59859      0.89602514     0.6763186      1.5723437      188.82403      107.46008      182.03066     -40.939782      138.31759      162.03054     -308.92514      62.224799      38.375906    
     54000   300.08076      0.89448158     0.67514041     1.569622       188.75942      107.40095      182.09485     -101.05641     -25.245452      133.85742     -470.11943      113.95051     -110.43192    
     55000   300.78358      0.89657657     0.67701468     1.5735912      188.92998      107.40214      181.97337      125.10696      293.05367      55.079242     -602.70186      32.181976     -102.25882    
     56000   299.99344      0.89422132     0.67874475     1.5729661      188.81331      107.3966       182.08565      104.72232     -129.71012     -258.13144     -573.05761      47.243505     -26.890309    
     57000   300.01812      0.89429487     0.67503795     1.5693328      188.84711      107.42964      182.04149      247.59931     -43.728543      84.265597     -657.25964     -202.45915      128.1715     
     58000   300.30688      0.89515562     0.67660853     1.5717642      188.7649       107.45219      182.18125     -158.24633     -66.518868     -111.00826     -712.24684     -139.45306      2.2784417    
     59000   299.55897      0.89292624     0.6752758      1.568202       188.8955       107.44926      182.06796     -79.943234      465.01783      7.7474377     -685.29893      94.996744      12.840768    
     60000   300.12836      0.89462348     0.67562745     1.5702509      188.92144      107.40241      182.15358     -302.58846     -187.314       -190.18571     -715.34594      137.30603      93.421995    
     61000   299.30844      0.89217944     0.67376077     1.5659402      188.80343      107.42474      182.04693     -97.334831      303.00971     -1.5834322     -593.80712      0.8004519     -6.8756775    
     62000   300.3482       0.89527879     0.67571476     1.5709935      188.86692      107.3907       182.10064      227.56498      121.69912      132.5145      -655.7729      -182.88879      112.17074    
     63000   299.94422      0.89407459     0.67539702     1.5694716      188.92187      107.44469      182.00219     -78.637068      1.2677043      89.843394     -763.54095      9.2570533      52.455393    
     64000   301.05914      0.89739794     0.67745896     1.5748569      188.95164      107.43111      182.06673      70.754005      27.624523     -32.067971     -646.48818     -105.66441     -27.625247    
     65000   299.77233      0.89356223     0.67467256     1.5682348      188.93722      107.35604      182.07867      332.12546      322.91567      223.74907     -526.65226      121.29856      23.668055    
     66000   299.85117      0.89379723     0.67669433     1.5704916      188.90584      107.44862      182.16674      146.46912     -68.175011      200.93282     -650.02005     -65.578385     -47.571969    
     67000   300.20963      0.89486571     0.67405859     1.5689243      188.82809      107.42903      182.12632     -375.8867       19.999769     -145.73434     -794.38627      106.6439      -128.06917    
     68000   300.09223      0.89451577     0.67483606     1.5693518      188.90855      107.41853      181.97586     -262.0293       201.37632     -166.27862     -735.99036     -114.72564     -49.649927    
     69000   300.33925      0.89525209     0.67613511     1.5713872      188.94887      107.39209      181.94806     -269.63406      241.32589      137.30933     -673.0797       71.437284     -110.08672    
     70000   299.95609      0.89410997     0.67628635     1.5703963      188.9631       107.42961      182.11418     -245.34356     -443.16463      93.191914     -625.55904      26.787848     -79.137585    
     71000   299.31736      0.89220603     0.67772451     1.5699305      188.86354      107.43031      182.15185     -95.196174     -28.08972      -274.64449     -753.16134      40.336313      141.29123    
     72000   299.60902      0.89307541     0.67732544     1.5704009      188.9576       107.44426      181.96277      202.36047      53.380317      62.741158     -918.42328      57.973302      52.654345    
     73000   300.34378      0.89526559     0.67454046     1.569806       188.86106      107.439        181.97663      7.4055666     -305.41828      74.475791     -760.25874      18.17513      -59.516284    
     74000   300.12184      0.89460404     0.6785308      1.5731348      188.98992      107.40963      182.06934      45.385262     -18.834175     -47.434698     -817.70709      20.697804     -43.704222    
     75000   300.33481      0.89523888     0.6778378      1.5730767      189.03392      107.42666      182.15232     -65.961787      216.08201      72.663206     -885.86394     -86.431435     -97.101702    
     76000   300.2948       0.89511959     0.6765325      1.5716521      188.99177      107.43331      182.11264     -237.60215      350.14659     -15.145078     -972.16729     -46.445601      84.430469    
     77000   299.68963      0.89331571     0.67629574     1.5696114      188.9445       107.46596      182.08123      65.514351     -148.58644     -160.18153     -981.96652     -46.933547     -1.2597533    
     78000   299.6146       0.89309206     0.67646063     1.5695527      188.88289      107.42568      182.01192     -121.46926     -259.74522     -77.377553     -952.88843     -36.009803     -35.821675    
     79000   299.64534      0.89318369     0.67600249     1.5691862      188.88906      107.39291      182.0674      -60.087194      97.54924      -76.288948     -853.49855      23.451141     -70.708868    
     80000   300.66569      0.89622515     0.67618082     1.572406       189.00781      107.41297      182.03031     -19.825607      299.14003      126.03162     -1003.1617      70.752648      12.246834    
     81000   300.14528      0.8946739      0.67610519     1.5707791      188.96719      107.38301      182.09664     -152.63115      571.34375      96.249264     -1051.4251      74.298046      4.8743565    
     82000   299.71952      0.89340479     0.6771687      1.5705735      188.88387      107.37273      182.03689     -85.657452     -24.501183     -83.464628     -844.12249      44.878359     -202.83702    
     83000   300.21219      0.89487336     0.67860014     1.5734735      188.98082      107.40426      182.22114     -238.01705      102.98662     -65.230663     -793.34327      161.78747      70.6919      
     84000   300.53252      0.89582819     0.67983908     1.5756673      188.98148      107.40895      182.18704      98.145193      40.745787      141.79897     -890.99331     -84.739601      27.895378    
     85000   299.57075      0.89296135     0.67915252     1.5721139      189.04457      107.39508      182.00491     -92.083291      108.32966      381.26274     -1015.6639      82.74915      -56.9191      
     86000   300.56651      0.89592953     0.6789065      1.574836       188.93721      107.41707      182.09455      129.99788     -66.941983      261.08476     -1053.5195     -139.13016     -89.697363    
     87000   299.68471      0.89330103     0.6758988      1.5691998      188.94986      107.35217      182.09133      67.023279      336.10884     -16.236923     -1075.7741      96.158403      165.15786    
     88000   299.92794      0.89402607     0.67611078     1.5701369      189.02514      107.44135      182.14328     -326.41603     -288.62075      31.806713     -983.64993      62.210365     -130.04443    
     89000   300.12797      0.89462231     0.67870171     1.573324       188.94481      107.45355      181.9794       428.38348     -61.048632      4.328026      -1309.1324     -99.701083     -136.99314    
     90000   299.87569      0.89387031     0.67901975     1.5728901      188.9553       107.43797      182.08535      67.514426      109.5061      -91.20373      -886.48589      120.78902     -73.610695    
     91000   300.33371      0.89523557     0.67732011     1.5725557      188.9776       107.4536       182.09387      1.732265      -184.10536      120.08614     -1010.8893      2.7700996      15.567993    
     92000   300.27585      0.89506311     0.6752305      1.5702936      189.05062      107.40757      182.09239      119.98176      76.379192      20.563197     -846.24593     -110.46529     -18.589904    
     93000   299.93009      0.89403248     0.6772323      1.5712648      189.01167      107.39106      182.14784     -61.727314      127.85483     -153.75646     -1079.7651      39.360998     -50.445558    
     94000   299.40086      0.89245495     0.67620556     1.5686605      189.06031      107.39753      182.13932      27.605138      214.26814     -23.553833     -1002.254      -122.64943      40.079742    
     95000   299.92583      0.89401978     0.67752843     1.5715482      189.00125      107.41272      182.14586      47.923889      58.496638      138.72582     -1124.5865      89.09439       162.39561    
     96000   300.37749      0.89536608     0.67663428     1.5720004      189.03545      107.44962      182.12361     -20.763592     -107.69299     -25.695457     -1108.4687      4.8701305     -92.188705    
     97000   299.54006      0.89286988     0.67860171     1.5714716      189.00808      107.44663      182.01829      168.99901     -19.584819      106.73284     -804.72942      162.75219      61.880687    
     98000   300.63378      0.89613002     0.6787949      1.5749249      189.00319      107.46502      182.06454     -120.622       -121.73443     -3.6409935     -1166.7219      71.37652       61.748411    
     99000   300.33922      0.895252       0.67879039     1.5740424      189.08405      107.46102      182.12696      82.482169      16.39157       123.81165     -1110.0784      127.38275      33.461634    
    100000   299.92161      0.89400718     0.67761082     1.571618       189.02053      107.43578      182.09415      280.68524      137.93205     -36.529753     -1047.8474      5.3779086     -4.7951429    
    101000   299.42871      0.89253795     0.67842338     1.5709613      189.14375      107.44633      182.00525     -47.361773      2.5789624      288.50628     -1336.4479      84.349174     -3.9041865    
    102000   299.86765      0.89384636     0.67678759     1.5706339      189.084        107.42767      182.04008     -312.41317     -20.357511      170.55835     -1190.0655      27.735769      55.995749    
    103000   299.87819      0.89387778     0.67622461     1.5701024      189.11296      107.42578      182.15563     -246.41923     -23.935411      49.427832     -1077.7541     -19.800764     -2.7054842    
    104000   299.51636      0.89279923     0.67902383     1.5718231      189.14771      107.43855      182.17854      139.25548      119.51257      6.4448931     -1433.9517      91.882733      119.08428    
    105000   299.6157       0.89309535     0.67706464     1.57016        189.10444      107.43475      182.11394     -158.6358      -196.48437     -202.47184     -1283.4624     -26.444211      58.223025    
    106000   299.90236      0.89394982     0.67795407     1.5719039      189.1425       107.42852      182.04166     -27.220726      48.78793       466.89798     -1217.0308     -185.03691      78.969759    
    107000   300.06589      0.89443727     0.67689605     1.5713333      189.1257       107.45347      182.01959     -349.84809     -408.7386       29.584851     -1196.8653     -4.2532327     -14.83742     
    108000   299.98454      0.89419477     0.67740287     1.5715976      189.16952      107.4319       182.13868      141.80631      117.8915       144.39375     -1267.51        33.569071     -11.327833    
    109000   300.08524      0.89449495     0.67646961     1.5709646      189.11044      107.41632      182.11062      90.034003      169.28223      17.601022     -1127.024       2.4611916      9.290115     
    110000   300.25577      0.89500326     0.67934839     1.5743517      189.07342      107.43362      182.23656      199.08652     -103.18304     -76.875743     -1132.0477     -30.650656     -153.68098    
    111000   300.35374      0.89529529     0.67615782     1.5714531      189.08654      107.42337      182.18478     -198.65453      175.18281     -37.108195     -1179.1386     -75.405066     -130.76418    
    112000   299.99151      0.89421556     0.67695459     1.5711701      189.15942      107.42707      182.12716      107.18172      1.3989715      224.93714     -1070.152       109.42654      71.89953     
    113000   300.09092      0.89451187     0.67630505     1.5708169      189.12007      107.42508      181.98758     -247.89933     -9.8587518     -21.865821     -1372.4366      119.79727      29.99754     
    114000   300.71755      0.89637972     0.67566773     1.5720475      189.09302      107.39426      182.09132      143.8993      -146.73716     -51.283403     -1395.6908     -1.8861927      49.201768    
    115000   299.81774      0.89369757     0.6772948      1.5709924      189.15866      107.42113      182.14227     -175.67477     -31.258787      73.841757     -1430.653      -63.86874       80.241667    
    116000   300.08461      0.89449307     0.67729909     1.5717922      189.24125      107.41774      182.1173       185.78285     -79.559095     -141.86424     -1158.9824      20.656793      128.74327    
    117000   299.95199      0.89409775     0.68009096     1.5741887      189.24971      107.43826      182.20798      53.442375      6.1240136     -125.52387     -1448.4392     -3.9884471     -35.841905    
    118000   300.45179      0.89558755     0.67839182     1.5739794      189.22353      107.437        182.21075     -115.96836     -63.268917     -214.93047     -1391.937      -120.96266      171.82891    
    119000   299.94532      0.89407786     0.67769705     1.5717749      189.14176      107.44812      182.19242     -330.31944     -189.19477     -45.720459     -1181.8256     -120.39659     -127.07937    
    120000   300.11894      0.8945954      0.67889345     1.5734889      189.2314       107.42821      182.04627      111.26515     -169.38394      93.774831     -1215.0292      100.65645     -20.758799    
    121000   299.64354      0.89317833     0.67830272     1.571481       189.22827      107.44922      182.18801     -300.44361      29.17154       59.789979     -1551.6381      76.421809      101.84072    
    122000   299.7748       0.89356958     0.67956699     1.5731366      189.27838      107.44122      182.13885     -127.28038      269.43413     -84.302527     -1259.8255      95.439901     -116.22856    
    123000   299.73252      0.89344356     0.67831656     1.5717601      189.18095      107.44315      182.09409      252.93591      49.778301     -21.762931     -1446.5334     -60.185289     -27.474268    
    124000   300.30605      0.89515314     0.67757921     1.5727324      189.09674      107.45508      182.24378      76.044792     -125.56508      67.631034     -1246.8122     -35.273805      78.083925    
    125000   300.41532      0.89547885     0.67938999     1.5748688      189.19406      107.4476       182.16828      227.12854      108.42576     -66.246945     -1290.5292      33.676304      86.532083    
    126000   300.16066      0.89471976     0.67901288     1.5737326      189.19594      107.42234      182.12991      128.06432      165.56636     -13.539568     -1450.482      -130.46638     -40.047238    
    127000   299.73501      0.89345097     0.67967573     1.5731267      189.27926      107.39189      182.09908      96.178189      244.13764     -28.41586      -1407.4011      136.414        16.390575    
    128000   300.28573      0.89509256     0.68074884     1.5758414      189.30535      107.41441      182.18289     -38.316556     -18.6442        104.42215     -1621.4081      74.324696      36.756087    
    129000   299.19157      0.8918311      0.67994681     1.5717779      189.31317      107.43783      182.24341     -153.80871     -75.72945      -257.88164     -1330.4787     -16.441016     -91.839442    
    130000   299.38239      0.89239989     0.68154812     1.573948       189.26124      107.44775      182.16707     -154.61605     -224.34059      70.174395     -1455.9511      87.54953       8.6968933    
    131000   299.55446      0.8929128      0.68000861     1.5729214      189.2854       107.41172      182.2148      -70.595873     -208.39806     -166.73457     -1454.928       133.61643      49.918889    
    132000   299.97838      0.89417643     0.67978702     1.5739634      189.20028      107.46723      182.30626      69.407638     -274.87009      83.622829     -1661.8336      96.44496      -61.086598    
    133000   299.84463      0.89377772     0.68120113     1.5749789      189.27563      107.42126      182.14524      57.386827     -43.159746     -100.94428     -1711.4253      34.889014      13.984646    
    134000   299.7095       0.89337492     0.67973507     1.57311        189.34904      107.42618      182.10329     -209.0693       56.481748      113.11655     -1395.8153     -90.736996      102.34159    
    135000   300.29465      0.89511914     0.67903506     1.5741542      189.30792      107.41803      182.1265       63.09664       52.218717      27.609685     -1562.7212      4.1400628      25.169854    
    136000   299.61567      0.89309525     0.68016851     1.5732638      189.26893      107.41921      182.22137      51.356681      18.062923      54.978049     -1430.9661      30.382877      66.084737    
    137000   300.11076      0.894571       0.68207676     1.5766478      189.32251      107.45716      182.18134     -55.143288      86.88385      -45.34998      -1525.5758     -33.70023       20.768553    
    138000   299.34601      0.89229146     0.68155693     1.5738484      189.40582      107.42964      182.16838     -329.81218     -219.61489      238.45754     -1512.3047     -88.343708     -39.552896    
    139000   300.25705      0.89500709     0.68126323     1.5762703      189.42703      107.42779      182.33945      504.76728      48.955535      22.98496      -1510.1344      92.11225      -6.7757225    
    140000   300.10942      0.89456703     0.67950591     1.5740729      189.29076      107.42673      182.18602     -55.34397       181.95688     -25.056463     -1627.4673      65.711992      134.52483    
    141000   300.66218      0.89621467     0.6802628      1.5764775      189.35939      107.48779      182.1917      -209.87292     -71.581754      110.65702     -1433.8495     -94.583582      10.277059    
    142000   299.60997      0.89307825     0.67855701     1.5716353      189.487        107.43643      182.25876      53.08755      -109.47878     -116.64003     -1696.4516      44.709902      59.713159    
    143000   300.52319      0.89580038     0.67949045     1.5752908      189.44564      107.40676      182.22053      100.22063      114.3305       90.123981     -1573.6135      112.60576     -9.9478704    
    144000   299.97963      0.89418014     0.68023522     1.5744154      189.38017      107.43034      182.14983      388.69136      103.59203      206.85349     -1586.6983     -36.059968     -187.60987    
    145000   300.18404      0.89478945     0.68172001     1.5765095      189.42999      107.44433      182.12723     -60.270336     -174.82855      93.781542     -1613.5773     -82.077191      99.92485     
    146000   299.84431      0.89377677     0.68110463     1.5748814      189.38107      107.46036      182.10284      62.4834       -125.25615     -184.6137      -1477.2946      9.6656591      36.90045     
    147000   299.97912      0.89417861     0.68065761     1.5748362      189.47082      107.44546      182.18675     -64.432968     -350.46645      79.799865     -1370.8023     -79.329566     -49.001862    
    148000   300.74784      0.89647004     0.68028516     1.5767552      189.47532      107.38837      182.23209     -323.7915      -216.98319     -152.06902     -1731.1666     -20.287139      32.290012    
    149000   300.1746       0.8947613      0.68097828     1.5757396      189.48517      107.46437      182.2031      -86.590869     -232.13182     -67.840794     -1507.6577     -167.70909     -121.13377    
    150000   300.37545      0.89535999     0.682045       1.577405       189.60324      107.43594      182.16201     -181.71391     -14.778036      163.0834      -1617.3247     -37.126902      17.86724     
    151000   299.63653      0.89315742     0.68047288     1.5736303      189.45761      107.43783      182.18808      62.624427      106.37654      127.13738     -1399.6283     -13.122415     -11.458742    
    152000   299.29249      0.89213191     0.68064318     1.5727751      189.50257      107.4239       182.14243      97.559866      164.30167      82.479349     -1728.5781     -26.080447     -16.577182    
    153000   300.1219       0.89460421     0.68333833     1.5779425      189.39032      107.49866      182.20212      449.10656      61.359072      210.51142     -1784.6448      37.106423      197.03637    
    154000   299.78837      0.89361004     0.6798565      1.5734665      189.45462      107.46397      182.21111     -47.523272      176.18801      22.602246     -1613.5649      124.44408     -23.777348    
    155000   299.59819      0.89304313     0.68036397     1.5734071      189.49254      107.39709      182.21198     -254.08473     -183.9018      -69.715634     -1618.4528      42.693471      0.72711571   
    156000   299.9017       0.89394786     0.68059985     1.5745477      189.45154      107.44559      182.29795     -291.32927     -31.08406       145.83981     -1671.3444     -108.80651      8.2512002    
    157000   299.9295       0.89403072     0.68066739     1.5746981      189.58103      107.42686      182.10903     -129.82434     -171.39187     -110.58186     -1672.2784      26.883807      60.435712    
    158000   300.42525      0.89550844     0.6808621      1.5763705      189.62595      107.45779      182.17693      3.2455201     -206.12381      354.22373     -1738.59        22.56199       54.678069    
    159000   300.80419      0.89663798     0.68265324     1.5792912      189.58471      107.45882      182.25362     -99.563802      144.27053     -10.074764     -1552.2423     -4.7890722      51.98009     
    160000   299.9946       0.89422475     0.68320715     1.5774319      189.58618      107.46814      182.32375     -163.24412      65.824841      34.526606     -1608.6658     -136.24214      12.093095    
    161000   299.82613      0.89372258     0.68262335     1.5763459      189.60918      107.41554      182.24747      50.063501      337.28584     -131.53126     -1749.1484      24.827796      16.59467     
    162000   299.44295      0.89258039     0.68265019     1.5752306      189.66688      107.38388      182.18416     -18.604493      63.459477     -76.960753     -1608.3992      85.651568      94.742406    
    163000   299.94131      0.89406592     0.68382394     1.5778899      189.62375      107.44249      182.30406      133.25722     -52.736145     -2.0653537     -1923.5745     -7.9552214     -1.4169323    
    164000   300.24367      0.89496718     0.67934127     1.5743084      189.61815      107.42976      182.20186     -236.60281      74.774871      38.029007     -1939.5832     -46.626211      73.329295    
    165000   300.23373      0.89493758     0.68164965     1.5765872      189.55769      107.45471      182.31585      17.373056     -142.09116     -42.694531     -1630.3042      125.47373      116.47323    
    166000   299.85723      0.89381528     0.68188929     1.5757046      189.65041      107.43091      182.22202     -401.98141      265.597       -117.36129     -1644.8113      13.217229     -34.319653    
    167000   299.67586      0.89327467     0.6814575      1.5747322      189.65048      107.3953       182.25586     -224.86117      307.86166     -14.372465     -1838.6898      10.741897      72.324085    
    168000   300.26289      0.89502449     0.68330991     1.5783344      189.62979      107.43039      182.28828     -115.84848     -73.81903       48.430477     -1794.2945     -6.0298612      46.865875    
    169000   299.37166      0.89236789     0.68301458     1.5753825      189.72732      107.44885      182.35376     -3.8447341      118.61089     -20.544902     -1739.4827      55.268566      131.80924    
    170000   300.31503      0.89517989     0.68262972     1.5778096      189.65428      107.41155      182.35254      161.61764      44.750221     -7.2882975     -1663.1792      47.384161     -57.331791    
    171000   299.65961      0.89322622     0.68488593     1.5781122      189.68133      107.44281      182.28517      43.23186      -262.0315      -136.53033     -1969.0667      43.139877      1.9014321    
    172000   299.73549      0.8934524      0.68188878     1.5753412      189.63561      107.43831      182.22424      421.85783     -13.665867      181.31409     -1806.2385      26.057683      10.845875    
    173000   300.24077      0.89495855     0.6831434      1.578102       189.6933       107.42789      182.17384      32.001332     -13.379364      91.893452     -1658.306      -19.597017      71.228144    
    174000   299.78434      0.89359801     0.68368114     1.5772791      189.74997      107.43025      182.32821      10.509094      188.06678      126.25753     -1666.081       103.39303      85.124869    
    175000   300.00653      0.89426032     0.68268054     1.5769409      189.70037      107.45038      182.20656      301.29132      34.378095      51.060543     -2056.0856     -46.450578      70.924113    
    176000   300.79004      0.89659581     0.68196529     1.5785611      189.64484      107.44589      182.29115      113.84081     -406.85074      19.617232     -1734.415      -52.551923      74.683221    
    177000   299.95259      0.89409953     0.68438872     1.5784883      189.59144      107.43104      182.26244      153.20144      114.28534      191.05635     -1982.832      -52.638703     -98.406764    
    178000   300.6115       0.89606363     0.68358668     1.5796503      189.74612      107.39057      182.28522      52.902685      185.40853      109.64344     -1970.4832     -39.072227      10.99417     
    179000   299.92462      0.89401617     0.68439267     1.5784088      189.84515      107.45104      182.26852      22.737109     -168.81638      89.014882     -1896.7865      84.208855      61.611087    
    180000   300.13254      0.89463594     0.68633635     1.5809723      189.77767      107.45302      182.36628     -57.297728      52.746886     -162.44269     -2090.3283     -98.302139     -15.406173    
    181000   299.95517      0.89410724     0.68412936     1.5782366      189.84798      107.46046      182.234       -105.53463     -338.44384      7.0499933     -1823.1059     -88.210091      75.604202    
    182000   299.71401      0.89338837     0.68250885     1.5758972      189.788        107.48137      182.22992     -52.617119     -322.0707       155.1564      -1926.0302      22.558977      77.207156    
    183000   299.88967      0.89391197     0.68488708     1.5787991      189.83728      107.47823      182.3541       152.0531      -36.512608      159.02223     -1875.2975      35.013128      84.502193    
    184000   300.29764      0.89512806     0.68451046     1.5796385      189.9149       107.44756      182.33256      80.012166      285.61887      11.382303     -1801.4847      23.039288     -8.7801844    
    185000   300.09353      0.89451965     0.68440119     1.5789208      189.99558      107.40666      182.20826      23.521278      253.28376      194.27713     -1815.6741     -47.927199     -109.41289    
    186000   300.69328      0.89630738     0.68530837     1.5816158      189.86068      107.41281      182.28246     -96.355663     -116.49166      193.96214     -1782.8435     -1.1497714     -4.6283757    
    187000   300.18336      0.8947874      0.68335707     1.5781445      189.82415      107.46561      182.30477     -95.114251      27.864859     -114.57118     -1846.6886     -86.209299      13.704496    
    188000   299.83644      0.8937533      0.68422393     1.5779772      189.86309      107.48349      182.31849     -181.90674      31.898095      0.2023706     -1959.3433      42.848153      115.30217    
    189000   300.23025      0.89492719     0.68220854     1.5771357      189.77405      107.48523      182.30877      146.4891      -469.26658     -89.543307     -1994.0324     -62.305251     -120.97972    
    190000   300.49957      0.89572998     0.68238972     1.5781197      189.82581      107.431        182.36548     -207.01027     -112.66164     -10.882492     -1899.2226     -11.386425      136.65315    
    191000   300.12303      0.89460759     0.68412613     1.5787337      189.94922      107.45356      182.25098      146.26559      6.9525834      59.233887     -1995.0987      41.430915      80.337626    
    192000   300.11078      0.89457107     0.68796306     1.5825341      189.95598      107.44531      182.37146      174.90626     -78.879321     -159.4818      -2068.882      -142.1011      -28.821522    
    193000   299.46926      0.89265884     0.68504999     1.5777088      189.96278      107.4689       182.30994      227.84119     -68.446281      174.70691     -2100.6601      87.054581     -105.51609    
    194000   300.17461      0.89476135     0.68507989     1.5798412      189.96929      107.4484       182.39275     -96.865788      159.89395      41.539262     -2142.0733      9.5506764     -10.483227    
    195000   300.24959      0.89498484     0.6823599      1.5773447      190.06236      107.4573       182.25877      16.578441      178.12872      131.03743     -1969.3128      8.8149025      2.1509132    
    196000   299.38954      0.8924212      0.68352512     1.5759463      189.95424      107.48399      182.26894     -196.42418     -217.20978      41.74701      -2142.173       14.209784      194.2993     
    197000   300.79726      0.89661733     0.68570898     1.5823263      190.0139       107.47627      182.31048      178.09894      111.35963      22.552713     -1694.5756      104.70482     -28.182372    
    198000   300.55755      0.89590279     0.68592334     1.5818261      189.94376      107.43369      182.32519      592.51125      179.28132      119.87768     -2027.6021     -97.018415      52.00212     
    199000   300.57481      0.89595425     0.68494468     1.5808989      190.05985      107.41609      182.28469     -76.158762      105.52251      49.740691     -2146.6866     -53.034927      19.018844    
    200000   299.69889      0.89334332     0.68438874     1.5777321      190.0405       107.41689      182.30137      128.75522     -26.338189      49.431345     -2069.7265      4.5367191     -33.341347    
    201000   299.7167       0.89339639     0.6846759      1.5780723      190.09431      107.40783      182.4117      -223.97489     -41.12501      -227.96607     -2243.4632     -159.58646     -116.7621     
    202000   300.306        0.89515297     0.68575138     1.5809044      190.06039      107.45044      182.33027      257.56696      18.029227      63.116353     -2059.7608     -70.978508      22.475841    
    203000   299.62208      0.89311435     0.6889032      1.5820176      190.13297      107.44417      182.35681     -168.04174     -319.21842     -174.05944     -1760.5634     -35.851024      112.79085    
    204000   300.36015      0.8953144      0.68598354     1.5812979      189.96148      107.42859      182.35259      42.804452      270.6652       140.96873     -1993.1135      47.04176       69.522378    
    205000   300.18878      0.89480357     0.68720403     1.5820076      190.14873      107.43492      182.31991     -10.639252      53.915495      53.741577     -2181.3464      68.004253      61.710216    
    206000   300.07298      0.89445841     0.68513132     1.5795897      190.11777      107.45433      182.30048     -235.21313      108.49482     -88.594703     -1993.9073     -79.961611     -46.586698    
    207000   299.39972      0.89245154     0.68563932     1.5780909      189.99627      107.42428      182.33959      155.07672     -322.62983     -27.313949     -2108.5279      31.415803      18.049095    
    208000   300.75416      0.89648885     0.68755263     1.5840415      189.98554      107.46474      182.41821     -132.63421      199.43385     -3.5159603     -2346.1205      57.256285      197.60677    
    209000   300.17237      0.89475466     0.68555572     1.5803104      190.07716      107.44379      182.34542      32.322157     -11.893374      40.223064     -2226.839       145.59614     -41.631055    
    210000   300.13652      0.8946478      0.68692769     1.5815755      190.12473      107.45222      182.29974     -128.36578      143.23908      79.94503      -2018.997       177.66609      101.19124    
    211000   300.35741      0.89530624     0.68499152     1.5802978      190.20389      107.49461      182.37432     -80.660855     -2.7090709     -125.80342     -1878.0826     -67.934959     -102.55898    
    212000   300.05228      0.89439669     0.68691291     1.5813096      190.25976      107.46784      182.33138     -28.740376     -520.98208      94.393889     -2177.536      -62.934967     -44.010425    
    213000   300.21971      0.89489578     0.68957485     1.5844706      190.23027      107.43933      182.44423      138.83977     -184.59731      14.418898     -1998.5487     -62.455433      125.39175    
    214000   299.77067      0.89355727     0.68741429     1.5809716      190.23946      107.46255      182.36924      54.411905      206.14994      251.84562     -2090.2078     -81.616377     -56.845878    
    215000   299.78737      0.89360706     0.68751587     1.5811229      190.29186      107.4115       182.30266      230.05179      468.63258      40.719609     -2053.4233      106.914       -38.049814    
    216000   299.67516      0.89327259     0.68513882     1.5784114      190.23575      107.4394       182.33962      242.72669      154.46346     -85.170494     -2252.2255     -5.4327143     -74.265607    
    217000   299.74438      0.89347891     0.68741592     1.5808948      190.30869      107.42387      182.41185      146.36661      186.64581      187.63378     -2157.5873     -49.962975      36.370151    
    218000   300.72755      0.89640955     0.6862898      1.5826994      190.26917      107.39487      182.45922      67.453478     -16.066915      71.232792     -2329.6211     -30.092516      41.661945    
    219000   299.49055      0.89272228     0.68923601     1.5819583      190.29214      107.4695       182.28226      199.36167     -435.25837      48.90553      -2145.8607     -76.444251      7.8147165    
    220000   299.92767      0.89402527     0.68646656     1.5804918      190.27539      107.40636      182.32781      92.823667      44.820148      27.438932     -2136.7139      70.170955      119.89764    
    221000   299.09788      0.89155182     0.68753419     1.579086       190.28677      107.44458      182.44249      57.809395     -311.93772     -23.831837     -2162.9011      9.4486621      58.072549    
    222000   300.13681      0.89464865     0.68664955     1.5812982      190.43185      107.42629      182.41849     -162.22902     -168.74219     -46.047759     -2199.0047      85.572469      74.867536    
    223000   299.68561      0.89330374     0.68633631     1.57964        190.34907      107.40466      182.29326     -21.834808     -205.10224      67.644904     -2259.0525      32.26233       80.383095    
    224000   299.8686       0.89384918     0.6864112      1.5802604      190.42894      107.41744      182.38349     -198.32355      34.56629      -195.7837      -2069.6986     -88.345085      103.93861    
    225000   300.39153      0.89540792     0.68734136     1.5827493      190.38051      107.46382      182.6165       70.971187      47.656266     -60.303813     -2118.1969      99.256422     -67.675984    
    226000   300.1855       0.89479381     0.6885801      1.5833739      190.51648      107.43457      182.43194     -94.249751      242.16623     -87.251716     -2221.6775      39.304709     -31.757162    
    227000   299.65937      0.89322551     0.6893826      1.5826081      190.32762      107.43881      182.3548      -20.249945     -210.84182     -131.36905     -2373.2646      24.989623      43.452115    
    228000   300.32643      0.8952139      0.68924899     1.5844629      190.37944      107.48437      182.31353      268.93908     -326.36684      30.270544     -2287.7134     -26.090965     -88.433162    
    229000   299.75908      0.89352273     0.68821411     1.5817368      190.52161      107.42175      182.40865      22.655401      46.468542      18.84314      -2187.7694      65.418111      32.722121    
    230000   300.43325      0.89553229     0.69008049     1.5856128      190.51245      107.41364      182.47809     -211.52686     -116.37206      57.041748     -2250.3651      46.133318      184.35083    
    231000   299.94347      0.89407235     0.68562545     1.5796978      190.33594      107.45454      182.41735      255.96783     -403.43915     -26.839456     -2481.2575     -18.669889      30.048474    
    232000   299.97244      0.89415871     0.6870286      1.5811873      190.46538      107.41366      182.38901     -223.54744      223.70744      295.56728     -2358.3458      91.041079     -32.427908    
    233000   299.79396      0.89362671     0.68924834     1.582875       190.43451      107.43155      182.4101      -428.30164     -213.64185     -29.262613     -2310.4648     -97.175548      77.963405    
    234000   299.90535      0.89395871     0.68729101     1.5812497      190.44565      107.42697      182.40278      267.89332      42.54177       129.39359     -2194.9484      49.570572      114.44254    
    235000   299.85216      0.89380018     0.68962664     1.5834268      190.58763      107.43453      182.46299     -182.92826      442.51934      205.56374     -2375.9509      16.774989     -5.6921286    
    236000   300.17107      0.8947508      0.68783913     1.5825899      190.58387      107.43554      182.49875      37.928458      137.159        179.33056     -2290.9729     -3.5202692      7.7643177    
    237000   299.61241      0.89308552     0.68829246     1.581378       190.47697      107.4572       182.40248     -120.17011      119.75397      163.39015     -2408.2407     -19.048406      44.062853    
    238000   299.92426      0.89401508     0.68663676     1.5806518      190.42293      107.47257      182.43013      67.028287     -186.96908     -9.1347768     -2702.5612      120.98429     -55.981024    
    239000   299.97771      0.8941744      0.6873271      1.5815015      190.57074      107.45572      182.4207      -117.06058      120.42556     -196.01036     -2309.4689     -13.943808      53.307297    
    240000   299.35073      0.89230552     0.68868127     1.5809868      190.6309       107.49973      182.38893     -116.00841     -12.864804     -143.04674     -2195.1667      94.804852      46.405436    
    241000   299.45856      0.89262694     0.68918841     1.5818153      190.65331      107.40519      182.48348     -181.6605      -15.433196     -235.99198     -2345.9645     -91.770153      1.6048943    
    242000   300.05176      0.89439515     0.68875874     1.5831539      190.69609      107.45393      182.47576     -189.76111     -173.1551       142.03216     -2212.7493      5.1296297     -10.63176     
    243000   299.91019      0.89397317     0.69131417     1.5852873      190.63594      107.45269      182.4099       292.68448     -217.89255      95.798169     -2584.7165     -65.929119     -138.99659    
    244000   300.18911      0.89480457     0.68937109     1.5841757      190.51681      107.51536      182.51946      212.33466     -200.83292     -33.98208      -2358.075       48.59389       62.573054    
    245000   299.86019      0.8938241      0.69176437     1.5855885      190.77231      107.39422      182.51686     -220.97799      276.48589     -35.358013     -2374.5581      80.131164     -52.801384    
    246000   299.73624      0.89345463     0.69117315     1.5846278      190.7451       107.50183      182.47118     -171.60758     -177.53976     -172.84272     -2296.1492     -34.886575     -86.646084    
    247000   300.183        0.89478634     0.69130022     1.5860866      190.72916      107.45498      182.46146      16.696143     -51.885283      2.9684575     -2275.3971      123.05303      10.360291    
    248000   299.89208      0.89391916     0.69138015     1.5852993      190.88047      107.45943      182.50574      30.407571      160.19992      77.880858     -2466.1357     -83.28086      -91.565692    
    249000   300.02632      0.89431932     0.69029932     1.5846186      190.79984      107.44444      182.33227     -28.479683      57.023508      100.74368     -2287.557       0.99502134    -82.818392    
    250000   300.65289      0.896187       0.69163955     1.5878265      190.74729      107.48387      182.4058       39.326748     -132.63797      71.131762     -2113.6509      63.897265      64.356927    
    251000   300.40728      0.89545488     0.69119904     1.5866539      190.75073      107.50163      182.47421     -144.76316      187.87541      202.68732     -2533.8393      10.729268     -29.369334    
    252000   299.82389      0.8937159      0.69046597     1.5841819      190.89406      107.41656      182.43657     -36.504116      118.03867      53.682082     -2240.471       62.789996     -45.015207    
    253000   299.11156      0.89159259     0.69358079     1.5851734      190.86558      107.46014      182.56504      52.12395      -25.84698       70.370523     -2475.4681     -12.425452      7.9705836    
    254000   299.80293      0.89365342     0.69228755     1.585941       190.85254      107.43364      182.47414      103.98224     -292.56947      179.06461     -2484.4565      105.45173      235.40849    
    255000   300.83348      0.8967253      0.6930042      1.5897295      190.89927      107.466        182.44738      326.75502     -99.017922      197.7459      -2228.9868     -89.997416      132.44807    
    256000   300.24761      0.89497892     0.69050963     1.5854886      190.88521      107.49377      182.5516      -15.32923      -293.10479     -135.63298     -2465.482      -81.937118     -21.41773     
    257000   300.35091      0.89528685     0.69075119     1.586038       190.92773      107.45761      182.50219      275.08165      198.01146      86.788281     -2377.4272     -69.468919      88.526131    
    258000   300.20251      0.89484451     0.6893281      1.5841726      190.86177      107.46536      182.50504      124.77386      252.49462      41.413484     -2272.8005     -2.1335131     -0.38138263   
    259000   299.95478      0.89410605     0.69180769     1.5859137      190.85456      107.47904      182.50032      218.84428     -243.63116     -208.85914     -2452.4804      70.317449      64.660348    
    260000   299.49265      0.89272856     0.69160966     1.5843382      190.94263      107.49834      182.45553      244.90871      85.609437      107.21298     -2329.7362     -118.32486      24.166006    
    261000   299.7943       0.89362771     0.69350094     1.5871287      190.89448      107.53154      182.46986     -198.61613     -174.05487     -87.33059      -2617.2408      115.67291      35.082768    
    262000   299.57146      0.89296347     0.69181226     1.5847757      190.93753      107.49005      182.47018      190.30519     -254.80195     -63.695964     -2571.07        67.398006      59.038927    
    263000   300.17566      0.89476446     0.69341066     1.5881751      190.99089      107.48098      182.40331      115.80582     -96.694754      129.65091     -2344.3065      20.326205     -94.311779    
    264000   300.0989       0.89453565     0.69277816     1.5873138      191.01865      107.47323      182.51139     -134.13091     -278.67194     -128.37718     -2357.7984      104.26034     -140.84775    
    265000   299.88547      0.89389946     0.69259268     1.5864921      191.14923      107.52127      182.53313      42.641461      393.34971      11.085002     -2208.9133     -157.78153      51.106287    
    266000   300.03161      0.89433509     0.69276654     1.5871016      191.10109      107.45769      182.52004     -233.94765      336.91642      54.23429      -2397.4748      19.725906     -27.077211    
    267000   299.71692      0.89339707     0.69377479     1.5871719      191.10041      107.44896      182.48158     -0.15462151     126.07969      142.68374     -2430.0002      139.94185      101.63977    
    268000   300.47241      0.89564902     0.69244431     1.5880933      191.0418       107.40702      182.50666     -50.881267      116.05916     -30.517561     -2491.9964      76.883024     -105.49719    
    269000   299.57266      0.89296705     0.69429227     1.5872593      191.12789      107.53082      182.5172      -347.67242     -463.33106      124.57046     -2488.246      -1.9422864      82.321745    
    270000   299.47549      0.89267741     0.69368195     1.5863594      191.13008      107.4574       182.48464      109.13358      9.5349077      65.824319     -2512.4663      35.742167      121.44597    
    271000   299.7843       0.89359789     0.69231106     1.585909       191.13747      107.42321      182.55519      29.598419      133.34382     -213.48826     -2311.0695     -8.9747828      26.507635    
    272000   299.97997      0.89418116     0.6930167      1.5871979      191.23516      107.44877      182.64006     -135.21809     -184.04498     -23.531283     -2448.6696     -87.227201     -95.831111    
    273000   300.08913      0.89450653     0.69306697     1.5875735      191.24572      107.48003      182.59619      117.8722      -166.1146       109.8863      -2583.2438      57.600942     -73.242206    
    274000   299.85318      0.89380322     0.69321896     1.5870222      191.25452      107.44586      182.42267      165.864        150.94852      109.70999     -2900.1657     -24.618408     -27.400331    
    275000   299.92335      0.89401238     0.69563459     1.589647       191.29503      107.42407      182.51418      6.1936738     -74.034291      223.66902     -2549.7538      34.621162      87.090805    
    276000   300.21869      0.89489273     0.69133781     1.5862305      191.2207       107.43588      182.56069      333.93221      367.26926      40.949071     -2504.1347      56.770743      116.92172    
    277000   300.09292      0.89451784     0.69658029     1.5910981      191.29495      107.46507      182.67529     -99.551313     -191.71316     -73.448807     -2350.1949      28.772034     -26.807345    
    278000   300.42744      0.89551496     0.69420098     1.5897159      191.13703      107.48798      182.59335      333.6089       206.50839     -152.99285     -2477.0722     -39.180237      141.65449    
    279000   300.07042      0.89445078     0.69435239     1.5888032      191.28434      107.45433      182.44885      114.50305     -99.626586      51.624012     -2442.6419     -45.620381      166.15742    
    280000   299.34775      0.89229664     0.69517971     1.5874764      191.29425      107.44387      182.59581     -229.78007     -274.15183     -80.124274     -2565.7327      39.973638      17.403242    
    281000   300.50575      0.89574841     0.6939969      1.5897453      191.41001      107.42016      182.51582      172.87449      338.80553      76.017154     -2540.2357      16.197975     -58.837017    
    282000   300.13177      0.89463365     0.69493267     1.5895663      191.32434      107.47021      182.52191      62.117397     -74.709229      22.355308     -2417.1138     -77.827185      33.863301    
    283000   300.11617      0.89458713     0.69535241     1.5899395      191.37267      107.50079      182.67503     -29.788694     -259.14766     -99.230793     -2494.7114      83.777259     -27.693934    
    284000   300.03357      0.89434094     0.69480633     1.5891473      191.47777      107.4603       182.6126       77.339414     -23.974708      94.258237     -2444.4525      170.7493      -10.231855    
    285000   299.69104      0.89331992     0.69808137     1.5914013      191.39804      107.48238      182.52813      178.21806     -137.67154     -117.47336     -2345.4811      1.3227996      46.695762    
    286000   300.32639      0.89521376     0.69490868     1.5901224      191.34745      107.48501      182.62654     -141.23307     -99.309627     -163.03946     -2591.8489     -7.1992737     -152.08358    
    287000   299.46735      0.89265315     0.69846615     1.5911193      191.45735      107.41102      182.65493      2.9370923     -40.854893      45.193028     -2502.1136      95.24489      -103.51813    
    288000   300.19199      0.89481315     0.69663272     1.5914459      191.52079      107.43313      182.61795     -141.37604      269.59183      181.07024     -2682.0821     -1.9773244     -28.288147    
    289000   300.03857      0.89435584     0.69448982     1.5888457      191.45149      107.47511      182.48835      130.32481     -102.97232      128.07779     -2489.1377     -8.2670681      44.049687    
    290000   299.39008      0.89242282     0.69417604     1.5865989      191.46281      107.44796      182.57236     -111.97949      332.07231      237.35949     -2476.1679      18.633318      2.3405093    
    291000   300.09913      0.89453634     0.69563432     1.5901707      191.38779      107.42716      182.68957     -190.49458     -6.6655515     -75.324656     -2508.9272      112.29424      30.611055    
    292000   299.67318      0.89326668     0.69606377     1.5893305      191.5463       107.44745      182.50295      32.953755      279.50177     -5.6082413     -2416.7722      55.818457      26.06926     
    293000   300.21839      0.89489184     0.69760973     1.5925016      191.6413       107.4852       182.66936     -220.80538     -64.082991     -109.89698     -2357.9909      153.92653      123.38937    
    294000   300.12593      0.89461622     0.69668383     1.5913001      191.50161      107.45972      182.65103     -151.26166     -362.26441     -61.936462     -2566.7901      22.401099      82.986151    
    295000   299.47277      0.89266929     0.6978369      1.5905062      191.79506      107.41561      182.57232     -376.62504      265.31943      151.19392     -2422.342       40.111507      136.24902    
    296000   299.46588      0.89264875     0.69670756     1.5893563      191.68885      107.42001      182.64994      307.29496      281.99234      91.806649     -2610.3105     -9.9728495      83.566379    
    297000   299.82677      0.8937245      0.69772884     1.5914533      191.58598      107.46718      182.74407      151.25064     -25.49426      -128.42756     -2570.7334      82.149178     -62.623858    
    298000   300.06532      0.89443557     0.69846009     1.5928957      191.67356      107.44912      182.66797      383.56499      104.60001     -22.038967     -2876.5742     -10.309681      113.47074    
    299000   300.12333      0.89460847     0.69627487     1.5908833      191.72877      107.49359      182.53427     -285.05267     -219.58064      163.52052     -2665.6408      89.538943      67.622604    
    300000   299.97696      0.8941722      0.69748309     1.5916553      191.74681      107.47742      182.6118      -204.49047     -201.96452     -106.47278     -2647.2886      76.435232      54.52626     
    301000   300.22605      0.89491466     0.69813878     1.5930534      191.74526      107.44928      182.76614     -172.08458     -237.39099     -164.45512     -2831.2689      81.138845      240.92119    
    302000   299.88575      0.8939003      0.69751026     1.5914106      191.67409      107.46955      182.73462      182.11653      149.628       -133.35432     -2572.6593     -0.94238637     64.350395    
    303000   299.36453      0.89234665     0.69920296     1.5915496      191.8128       107.47097      182.64946      150.78161      15.954765     -141.61994     -2464.7124     -30.120323      71.301541    
    304000   300.42291      0.89550147     0.69654409     1.5920456      191.80943      107.45384      182.70525      120.91473     -132.53636     -61.246733     -2581.0528      95.414698     -58.684746    
    305000   299.93767      0.89405506     0.69592203     1.5899771      191.84         107.44611      182.61857      50.534253      43.930806      95.413098     -2644.2359      5.6928797      99.707478    
    306000   300.14738      0.89468017     0.69528202     1.5899622      191.78656      107.43053      182.6762       61.559453      114.30365      37.6318       -2394.4614      48.210567     -55.127992    
    307000   300.37103      0.89534683     0.69961565     1.5949625      191.89059      107.46879      182.70582     -448.54954     -310.50747      107.50014     -2834.9179     -21.042153     -69.590639    
    308000   300.06892      0.89444631     0.69699476     1.5914411      191.77138      107.51747      182.64805     -65.054577     -273.14309      56.474924     -2803.5254     -76.973195      1.4781997    
    309000   299.77375      0.89356646     0.69814708     1.5917135      191.91376      107.44894      182.70966      5.7529915      76.342631      97.03381      -2770.5232     -31.094669      43.584704    
    310000   299.93396      0.894044       0.69878148     1.5928255      191.98088      107.42729      182.67654     -53.023339     -134.41868     -19.14351      -2585.2732      127.31281      13.138007    
    311000   299.76646      0.89354471     0.69918923     1.5927339      191.97968      107.48372      182.72766     -115.75018      21.443559     -43.02523      -2448.3014     -25.215241      76.483702    
    312000   299.56259      0.89293701     0.70015093     1.5930879      191.94654      107.46013      182.69145      18.974392     -68.31476      -137.20393     -2458.7633     -72.528779      13.077501    
    313000   300.57584      0.89595733     0.70123381     1.5971911      191.99975      107.42809      182.6985      -156.51305      211.56313      312.08935     -2603.2465     -19.176632      103.70582    
    314000   299.93888      0.89405867     0.69860386     1.5926625      191.95755      107.50366      182.66226     -20.524443      124.90926      103.28013     -2775.3846     -20.729378      99.672218    
    315000   300.78886      0.89659231     0.69682919     1.5934215      191.96573      107.417        182.64678      204.19543      211.79063      70.24172      -2734.7037     -27.639907      44.684754    
    316000   300.53246      0.895828       0.69973229     1.5955603      191.99065      107.41942      182.76577     -163.40847     -73.583159     -126.69344     -2559.2758      67.083516     -108.34857    
    317000   300.35871      0.89531009     0.70078229     1.5960924      192.13187      107.47761      182.87723     -56.832236     -212.54482     -40.057612     -2538.9832      157.57907      89.728141    
    318000   299.38067      0.89239477     0.7018433      1.5942381      192.12614      107.45205      182.71438      19.795594      47.59012       110.43421     -2531.8242      26.768431      80.872605    
    319000   299.78021      0.89358571     0.7010607      1.5946464      192.14384      107.47428      182.76936      124.88202     -216.58168     -187.48203     -2860.8975      2.1646237      99.276945    
    320000   300.13017      0.89462886     0.69899685     1.5936257      192.13582      107.43841      182.75148     -237.77823     -108.71939     -58.000126     -2551.3536      79.80128       77.929397    
    321000   299.63605      0.89315598     0.69983386     1.5929898      192.20752      107.48204      182.93955      135.41196      311.0875      -373.78542     -2590.861       108.0233       115.44574    
    322000   299.75806      0.89351969     0.70079115     1.5943108      192.24388      107.47773      182.71129      199.35949      170.96617      11.377056     -2759.3221      237.27979      40.445408    
    323000   300.15532      0.89470384     0.70080622     1.5955101      192.24604      107.48677      182.83334      73.784121     -297.74035     -177.40124     -2531.8962      40.654608      187.05984    
    324000   299.92004      0.89400252     0.69986231     1.5938648      192.38295      107.43958      182.87087      263.86499      4.8433131      17.084987     -2650.4474      97.770163      129.26475    
    325000   299.84449      0.89377731     0.70220879     1.5959861      192.39103      107.48114      182.82326     -115.32201     -9.9328764     -100.58873     -2668.9181      55.248362      78.586356    
    326000   300.26123      0.89501953     0.70230576     1.5973253      192.17339      107.47853      182.82318     -87.873414     -266.31883     -182.53795     -2683.4922     -37.801773      59.621419    
    327000   300.23653      0.8949459      0.70067589     1.5956218      192.36882      107.47335      182.73344      1.445786       160.86371      10.30487      -2560.7388     -14.775711      105.58814    
    328000   300.01287      0.89427923     0.70230897     1.5965882      192.3301       107.53158      182.69481     -65.081621     -180.72901     -182.33544     -2641.5667      91.465589      106.11211    
    329000   299.68279      0.89329533     0.70307314     1.5963685      192.34045      107.46955      182.73604      72.865032      134.57586      128.99806     -2440.1133      24.74569       33.476969    
    330000   300.12851      0.89462391     0.70142819     1.5960521      192.48585      107.49111      182.79859     -47.366706      67.02773      -7.91591       -2650.3579      20.697686      96.470855    
    331000   299.75025      0.89349639     0.70297837     1.5964748      192.40601      107.45785      182.91311     -133.73001     -90.700117     -277.06524     -2666.6899     -134.94157      133.85329    
    332000   299.80464      0.89365854     0.70338271     1.5970413      192.44296      107.47348      182.90564     -185.41906      22.137343     -216.9084      -2592.9819      26.428916     -78.646466    
    333000   299.56149      0.89293375     0.70478842     1.5977222      192.47751      107.46828      182.8039      -70.755769      77.139073      112.91183     -2642.2274     -95.808894      76.303497    
    334000   299.90528      0.8939585      0.70221493     1.5961734      192.56936      107.4317       182.7652       56.904407     -41.326622      9.0350882     -2560.2905     -20.462132      126.16328    
    335000   299.45906      0.89262842     0.70508276     1.5977112      192.59588      107.46224      182.9117      -49.395997      87.937588     -148.85511     -2535.4002      68.198807      18.327683    
    336000   300.48262      0.89567945     0.70369559     1.599375       192.56443      107.50308      182.79422     -54.082782     -150.90327      156.57823     -2608.3188     -102.63165      245.76245    
    337000   299.74956      0.89349434     0.70266565     1.59616        192.50289      107.44179      182.89528      322.78001      425.27931     -66.575556     -2774.197       50.434888     -25.491058    
    338000   300.31458      0.89517856     0.70124701     1.5964256      192.47795      107.4861       182.92676      70.357438      172.52211      106.57162     -2633.6504     -40.776043      109.40418    
    339000   300.2252       0.89491213     0.70399118     1.5989033      192.49998      107.44955      182.83742      10.850383      310.0949      -110.49363     -2488.8326     -7.1057708      144.38504    
    340000   300.36208      0.89532014     0.70295804     1.5982782      192.61941      107.43488      182.80281      150.13142      162.93279      86.262193     -2538.2944      94.663287      130.45793    
    341000   300.24136      0.8949603      0.7044539      1.5994142      192.5771       107.45975      182.81786      182.48379      34.757366      94.624273     -2609.1113      63.540595      29.022761    
    342000   299.63124      0.89314167     0.70463209     1.5977738      192.69639      107.4655       182.86958     -238.97661     -9.1122921      5.0374945     -2482.7828     -5.1804342      6.4438784    
    343000   299.94381      0.89407338     0.70271157     1.5967849      192.57596      107.43907      182.87138     -2.5124537      139.6677       88.466702     -2632.5745     -102.48255      158.97755    
    344000   300.18245      0.89478471     0.7022995      1.5970842      192.66174      107.50671      182.8667       50.701493      59.713438      15.71902      -2754.2864     -6.5354661      128.29261    
    345000   300.56536      0.89592609     0.70569516     1.6016213      192.7467       107.4478       183.00808     -10.390712     -45.923898     -136.16652     -2543.1471      52.445588     -0.7077847    
    346000   300.20481      0.89485135     0.70517478     1.6000261      192.8498       107.46669      182.87745     -69.688336     -62.489547     -89.06195      -2636.1346     -208.28359      115.45126    
    347000   299.60591      0.89306615     0.70572651     1.5987927      192.71351      107.48298      182.79599      0.20884172    -146.93677      19.55674      -2748.8351     -4.3503172     -21.470721    
    348000   300.18619      0.89479584     0.70541394     1.6002098      192.87962      107.49996      182.79755     -41.727313     -53.94895       15.361096     -2612.7924     -19.666208      144.00351    
    349000   300.1868       0.89479767     0.70644235     1.60124        192.85817      107.49181      183.00142      390.14138     -28.591124      72.104364     -2397.0065      18.187277      12.948154    
    350000   299.37451      0.89237641     0.703547       1.5959234      192.77326      107.46525      182.85615     -167.73602      5.2965327      219.06227     -2513.9319      19.640152      70.282645    
    351000   299.99115      0.89421449     0.70470674     1.5989212      192.95758      107.43647      182.88998     -45.755529     -31.325353      19.199985     -2673.2051     -33.613651      42.523942    
    352000   299.77791      0.89357885     0.70726323     1.6008421      192.9137       107.46712      183.0008      -66.350572     -116.9733      -33.601595     -2689.6821     -16.099699      89.022841    
    353000   299.90805      0.89396678     0.70715878     1.6011256      192.88178      107.46032      182.97783      270.18907     -1.0628746     -17.802803     -2715.012      -96.294755      34.697482    
    354000   300.01999      0.89430045     0.70522571     1.5995262      192.99153      107.52054      182.96793     -212.7738      -52.510764     -23.342185     -2766.9862     -6.0413288      57.317741    
    355000   299.99779      0.89423426     0.706026       1.6002603      193.02606      107.50618      182.88499     -56.67252       24.009106      81.164722     -2672.5433      27.112797      58.439171    
    356000   300.26123      0.89501953     0.70665723     1.6016768      192.98305      107.50485      182.89906     -4.6648556     -318.04892     -218.85654     -2429.6007     -59.92081       26.309546    
    357000   299.78541      0.89360121     0.70694512     1.6005463      193.03147      107.46814      182.78766     -66.154305      144.15659      199.43817     -2623.263      -59.18594       155.30184    
    358000   300.07635      0.89446845     0.70727298     1.6017414      193.02986      107.4343       182.90018      27.405709      98.330302     -114.86739     -2671.5656     -8.3381014      141.51624    
    359000   300.09253      0.89451668     0.7060465      1.6005632      193.18363      107.4556       183.00212     -121.36825      292.13634      35.04901      -2748.5084      120.30908     -59.958322    
    360000   299.90809      0.8939669      0.70872123     1.6026881      193.12351      107.47555      182.94847     -264.74618     -456.51758     -135.03111     -2419.7764     -71.712347      28.055096    
    361000   300.37749      0.89536608     0.70533978     1.6007059      193.03651      107.49043      182.98564      207.95622      81.435801      99.416933     -2568.5912      13.165037      150.60186    
    362000   299.58097      0.89299181     0.70782988     1.6008217      193.14155      107.45522      182.86085      248.17877      247.62905      158.65376     -2697.9789      147.36312      92.712336    
    363000   300.13552      0.89464483     0.70790687     1.6025517      193.24192      107.39092      182.99108      5.5873786     -11.564688      49.520209     -2345.5177      147.91462      177.46651    
    364000   300.18337      0.89478745     0.7080132      1.6028007      193.24223      107.47944      182.96087     -309.58599     -29.871627     -74.833369     -2617.5026      71.824705     -7.2611127    
    365000   300.05912      0.8944171      0.70513897     1.5995561      193.25713      107.42221      183.08474      392.62271     -77.346361     -377.14565     -2601.327      -24.362502     -67.08461     
    366000   299.63836      0.89316288     0.70721702     1.6003799      193.29222      107.47607      182.95719     -3.5229533     -369.207       -22.514885     -2579.6671      99.821357      101.17223    
    367000   299.99129      0.89421489     0.7080949      1.6023098      193.22632      107.48196      183.07095      115.04202     -165.25435     -174.35464     -2817.1722     -9.6121703      65.365785    
    368000   299.99684      0.89423145     0.70800199     1.6022334      193.33453      107.47582      183.0777      -47.272095     -5.7765734      29.028355     -2812.4325     -41.404737      3.0522544    
    369000   300.23494      0.89494118     0.71112978     1.606071       193.48667      107.46142      183.06188      75.833003     -28.457249      300.84277     -2528.3819     -17.650322      219.85994    
    370000   300.10448      0.89455229     0.70915706     1.6037094      193.44352      107.51197      182.91193      45.779869      45.801195      164.6819      -2540.7143     -110.56377      6.5610044    
    371000   300.39705      0.89542437     0.71171785     1.6071422      193.41115      107.48258      183.1095      -226.92692     -24.894215      5.4107987     -2600.1525      58.364496      21.599039    
    372000   300.36054      0.89531556     0.71035021     1.6056658      193.55586      107.52518      183.07567     -216.78187     -253.13544      78.985365     -2510.3403     -57.562664      162.19239    
    373000   300.19165      0.89481213     0.71046546     1.6052776      193.4528       107.49126      183.11626     -34.892349     -192.63039      149.96498     -2852.9373     -7.9728508      26.641479    
    374000   299.95348      0.89410219     0.70926393     1.6033661      193.58541      107.46241      183.0169      -145.24949     -10.521358     -70.243602     -2518.3615     -2.6063067      191.71738    
    375000   300.33076      0.89522678     0.71003743     1.6052642      193.40235      107.47068      183.11577      178.9694      -367.43884     -33.894575     -2568.5887      14.489894      123.95719    
    376000   299.32171      0.89221901     0.71000158     1.6022206      193.48472      107.47135      183.11058     -123.19778      59.268043     -69.744183     -2493.6918      10.487235      97.468989    
    377000   299.91         0.89397258     0.71264054     1.6066131      193.65291      107.47021      183.17566     -164.02968      175.1597       59.921817     -2495.7697      11.704673      191.16052    
    378000   300.48398      0.89568349     0.70994847     1.605632       193.55992      107.45489      183.05513      134.27618      440.33891      18.027039     -2642.0573     -71.441297     -33.870592    
    379000   300.28097      0.89507838     0.71125188     1.6063303      193.55435      107.46048      182.99663      343.7888       170.07537      18.813907     -2773.2419      53.117921     -47.071033    
    380000   300.36652      0.8953334      0.71092587     1.6062593      193.70334      107.49115      183.00067     -83.648345      90.006402      11.751434     -2551.1078     -42.979301      149.12392    
    381000   300.21278      0.89487512     0.71132095     1.6061961      193.72879      107.45814      183.18655      103.26515     -39.734336     -167.77385     -2505.7047     -140.72174      96.950927    
    382000   299.63666      0.89315782     0.7100268      1.6031846      193.72427      107.47868      183.10472     -59.245722     -104.76287     -87.879663     -2581.8202     -64.303279     -23.498855    
    383000   300.05473      0.89440399     0.70997563     1.6043796      193.72973      107.48376      183.09869     -161.23432      103.94263     -86.001225     -2713.5127      91.526749     -4.49344      
    384000   300.3847       0.89538757     0.71084247     1.60623        193.84469      107.41422      183.17915     -36.15934       279.09757     -196.22473     -2431.6291     -54.535079      34.440163    
    385000   300.46238      0.89561912     0.71232848     1.6079476      193.76837      107.47547      183.21346     -121.45797     -294.21659      46.251561     -2561.9103     -205.92425      78.985732    
    386000   299.85262      0.89380154     0.71224095     1.6060425      193.84598      107.4624       183.16641     -76.279961      38.603835      23.777792     -2699.5592      31.276398      165.81306    
    387000   299.44465      0.89258548     0.71214349     1.604729       193.8866       107.46412      183.19104     -10.985624      6.1428312     -83.13229      -2635.1368     -42.431594      21.699679    
    388000   299.45492      0.89261609     0.7122215      1.6048376      193.87787      107.50746      183.18417     -476.11616     -135.88337     -186.07946     -2573.8418      38.282973      19.24959     
    389000   300.33333      0.89523445     0.7138418      1.6090762      193.86417      107.50197      183.21486     -91.358407     -245.36219     -141.41508     -2603.8489      48.254005      132.2163     
    390000   300.31896      0.8951916      0.7131598      1.6083514      193.80084      107.45816      183.09146      20.321143      126.54521     -213.30519     -2557.4112      81.086228      71.229549    
    391000   299.9288       0.89402861     0.71375983     1.6077884      193.9413       107.49387      183.17003      152.28643      161.8881      -47.770968     -2586.9667     -146.09211      96.556154    
    392000   300.31144      0.8951692      0.71321504     1.6083842      193.92179      107.47835      183.18592      201.14713     -30.533915     -17.293791     -2507.2582      46.459094      42.290485    
    393000   299.8489       0.89379045     0.71623688     1.6100273      194.11606      107.46478      183.19303      41.471647     -100.51761      67.310085     -2494.837       22.646504      100.5588     
    394000   299.93344      0.89404246     0.71357048     1.6076129      193.91972      107.5195       183.21491     -95.136153     -103.80643      50.802094     -2472.1876     -1.88786        92.72099     
    395000   300.40087      0.89543577     0.71399423     1.60943        194.00935      107.43582      183.27918     -100.37061     -440.94594     -81.83924      -2574.7005     -62.974257      39.944157    
    396000   300.12637      0.89461755     0.71224588     1.6068634      194.0518       107.4546       183.20076     -62.757152      152.41693      149.00837     -2695.8509      79.663551      73.421577    
    397000   299.97528      0.89416716     0.71181537     1.6059825      194.19071      107.43825      183.19929     -206.88045      642.57115      53.834407     -2547.9728      47.98132       34.705766    
    398000   300.04983      0.8943894      0.7158051      1.6101945      194.17772      107.43856      183.33545      3.7980185      194.68487     -128.55466     -2401.1863      51.327789      143.62941    
    399000   299.65451      0.89321102     0.71569725     1.6089083      194.15628      107.48828      183.29329      50.855666     -167.56838     -95.669286     -2497.5907     -84.002535      40.296233    
    400000   299.37107      0.89236614     0.71152309     1.6038892      194.25305      107.44786      183.09021      213.4944       183.77909     -225.38722     -2438.2914     -23.178188      97.923434    
    401000   300.30424      0.89514773     0.71329109     1.6084388      194.27054      107.4585       183.13633      94.362412     -215.03327      155.48603     -2468.8233      139.86728      72.804351    
    402000   299.53991      0.89286941     0.71414538     1.6070148      194.16691      107.47883      183.19916      17.005136     -9.9593568      10.491205     -2755.3625     -49.992651      58.134701    
    403000   300.08412      0.8944916      0.7146424      1.609134       194.30922      107.47845      183.29048     -32.253886     -90.048185     -145.43509     -2445.9634      18.630674      60.112607    
    404000   299.76577      0.89354267     0.71795674     1.6114994      194.41664      107.44947      183.37983      70.644651     -309.4069       88.929802     -2360.4107      109.0513       143.85636    
    405000   300.05702      0.89441084     0.71519783     1.6096087      194.39958      107.44845      183.30367     -204.34075      195.78801      208.80617     -2310.1644     -8.0426216      274.58008    
    406000   299.75903      0.89352257     0.71453217     1.6080547      194.2443       107.48073      183.30168      14.116381      109.41185      48.625226     -2483.921      -214.08436      183.44319    
    407000   301.0101       0.89725176     0.71847989     1.6157316      194.47714      107.4891       183.35127     -14.404911     -242.50066      200.99555     -2312.8236     -26.520594     -0.65018479   
    408000   300.12432      0.89461142     0.71688007     1.6114915      194.40414      107.50282      183.43315      86.69794      -2.8013439      104.59259     -2647.6029      135.23809      87.36724     
    409000   299.63462      0.89315175     0.71631582     1.6094676      194.42259      107.46479      183.37235      182.42527      283.54756      125.71365     -2276.1115      0.16883986     149.95208    
    410000   299.87833      0.89387818     0.71575186     1.60963        194.60383      107.42853      183.33314      62.146421     -81.632173      80.35976      -2198.2641     -33.025985      140.20774    
    411000   300.65041      0.8961796      0.71707582     1.6132554      194.53965      107.49742      183.43861     -38.564139     -110.55431     -128.21634     -2462.6526      45.4733        149.84918    
    412000   300.53692      0.89584132     0.71839602     1.6142373      194.46296      107.51693      183.56311     -222.12565      60.794239     -163.54351     -2387.2136     -63.989402      66.850712    
    413000   299.53529      0.89285564     0.71559906     1.6084547      194.47627      107.48224      183.39926      418.66788     -194.18995      62.670339     -2259.1723      17.983664      103.28034    
    414000   300.65758      0.89620098     0.71662653     1.6128275      194.52972      107.4876       183.38907      456.10268      251.40673      43.798229     -2559.4865      196.04383      108.52584    
    415000   300.3792       0.89537117     0.71637379     1.611745       194.7162       107.45747      183.42777      35.513267      173.58596      94.165818     -2248.6965      60.641141      20.578343    
    416000   299.40239      0.89245951     0.71985725     1.6123168      194.76155      107.48778      183.47228     -127.34888     -51.745974     -133.44364     -2141.6825      69.692458      10.462519    
    417000   299.54852      0.89289509     0.71951951     1.6124146      194.7618       107.53531      183.40945      113.24567      233.64364      145.35631     -2363.5657     -33.508892      23.766585    
    418000   300.48495      0.8956864      0.71763029     1.6133167      194.64199      107.52322      183.40172      170.24092     -342.36777      79.151431     -2457.8227     -81.291599      14.63788     
    419000   298.72967      0.89045424     0.71925069     1.6097049      194.77855      107.46466      183.46494      143.56455     -15.889443     -1.6311804     -2257.0496      74.484092      179.93703    
    420000   299.70499      0.89336149     0.71783507     1.6111966      194.82609      107.46787      183.40445     -9.2763449      106.37772      189.63481     -2421.0728      25.702515      82.476351    
    421000   300.08454      0.89449284     0.7182355      1.6127283      194.82748      107.40005      183.46081     -228.22088      259.57326     -82.801437     -2133.176      -9.2191408      38.85422     
    422000   300.33108      0.89522775     0.71816752     1.6133953      194.88259      107.49484      183.45067     -91.407917     -262.688       -101.35147     -2391.6683     -118.93448     -11.92089     
    423000   299.83397      0.89374596     0.71868654     1.6124325      194.92208      107.5119       183.47078      153.05936     -61.443828      46.689203     -2370.5776     -26.292223      21.773608    
    424000   300.03839      0.89435528     0.72159163     1.6159469      194.99813      107.46141      183.39328     -340.90528      6.9205673      39.833702     -2305.5004      10.891766      104.06253    
    425000   300.85765      0.89679735     0.72074707     1.6175444      195.0179       107.4792       183.48348     -143.73158     -37.176309      219.00227     -2124.7191      28.413833     -30.508073    
    426000   300.17892      0.89477419     0.71759284     1.612367       194.86552      107.51135      183.5305      -144.42466      159.41019      13.052223     -2203.7171      48.922917      50.219392    
    427000   299.29268      0.89213249     0.72045435     1.6125868      195.02615      107.48673      183.57044      287.7356       61.45929       5.7768559     -2342.7906     -94.028486      36.362924    
    428000   299.90812      0.89396698     0.72001391     1.6139809      195.01101      107.50248      183.62323      76.202119      146.80726     -2.1840448     -2240.955      -93.092456      0.89656999   
    429000   299.65702      0.8932185      0.71876396     1.6119825      195.04556      107.52315      183.38491     -193.27162     -125.86625     -141.00879     -2003.5464      61.682109      23.247115    
    430000   299.48158      0.89269554     0.72252324     1.6152188      195.06045      107.50502      183.53878     -212.68987      113.80716     -92.426669     -2255.4502      39.928838      143.51528    
    431000   300.14713      0.89467942     0.71967779     1.6143572      195.10419      107.51403      183.68131     -8.0425495      208.30015     -10.226906     -2139.298      -61.347178      65.121471    
    432000   300.08904      0.89450628     0.71902655     1.6135328      195.1039       107.50044      183.55407      327.01407      117.07204     -12.218652     -2042.574      -23.342206      75.046178    
    433000   299.84438      0.893777       0.72050362     1.6142806      195.08131      107.4561       183.55174      190.00179      216.04685      39.267758     -2311.216      -26.419716      56.921171    
    434000   299.49133      0.8927246      0.71983505     1.6125597      195.09266      107.45304      183.63571      32.009988     -167.6602      -82.044141     -1993.6052     -34.854248      101.95328    
    435000   300.01295      0.89427947     0.71933159     1.6136111      195.08378      107.52321      183.63611      208.93437     -283.52117     -30.039171     -2089.0016      76.949095      184.73679    
    436000   300.47791      0.89566541     0.72070019     1.6163656      195.07532      107.51003      183.61554     -305.30533     -152.82926      32.925203     -1985.9428     -18.998192     -17.209517    
    437000   300.04321      0.89436965     0.72063753     1.6150072      195.12031      107.52553      183.55756      40.767315     -91.701435      13.115123     -1863.2683     -7.4932221      119.29004    
    438000   300.0424       0.89436725     0.72175113     1.6161184      195.15031      107.52412      183.62506     -377.48579     -29.125004     -127.33871     -2152.3301     -31.205747      117.33467    
    439000   300.26531      0.89503171     0.72197395     1.6170057      195.17319      107.49369      183.66404      171.86016      119.62167      148.51345     -2044.0586      101.57612      160.33673    
    440000   300.45696      0.89560296     0.72217488     1.6177778      195.22773      107.4868       183.65438     -125.99828      148.36625      39.216573     -1998.3503      29.638763      78.347042    
    441000   299.77844      0.89358044     0.71825036     1.6118308      195.10467      107.54687      183.67278      99.060647     -184.64495     -153.3071      -1977.8965     -78.290907      37.001747    
    442000   300.06818      0.8944441      0.72208078     1.6165249      195.04386      107.5485       183.72623      386.69714      152.44246     -159.63251     -2169.3347      32.607287     -1.7546984    
    443000   299.82196      0.89371017     0.72374833     1.6174585      195.13271      107.5332       183.65585      59.309036     -54.050861     -143.4455      -1846.2009      55.182068     -12.285145    
    444000   300.83633      0.8967338      0.7192545      1.6159883      195.14191      107.49821      183.68482     -381.56627      79.004089      235.27812     -1875.8626      53.747045     -25.976807    
    445000   299.61103      0.89308142     0.72281769     1.6158991      195.06945      107.59803      183.73516     -305.52539     -321.29405     -119.30106     -2001.737      -31.740637      207.67928    
    446000   299.91802      0.8939965      0.72181372     1.6158102      195.15054      107.57383      183.74916      249.44717     -64.34003       139.67522     -1618.7029     -30.703259      58.79147     
    447000   299.61295      0.89308715     0.72052613     1.6136133      195.19637      107.55897      183.73274     -375.85727     -86.032559     -144.27872     -1900.7015     -53.205183      16.727082    
    448000   300.46697      0.89563281     0.72155312     1.6171859      194.96019      107.5894       183.77116     -97.563682     -259.3937      -98.731646     -1916.687      -30.974581      103.0673     
    449000   299.70896      0.89337333     0.71870207     1.6120754      195.07468      107.51058      183.70945      83.601137      134.11381      142.24224     -1636.1151     -51.55833       152.04654    
    450000   300.02711      0.89432168     0.72095302     1.6152747      195.1485       107.5787       183.72228     -282.56196      19.278932     -131.29145     -1943.9349     -63.798284      163.90565    
    451000   299.77654      0.89357476     0.72043902     1.6140138      195.04319      107.60591      183.66428      38.747078      43.545877     -110.09025     -1951.4016      41.237815      27.807252    
    452000   300.14982      0.89468745     0.72279012     1.6174776      194.93294      107.59969      183.72846      23.901586     -9.8746551      159.97029     -1970.5378      19.651049      56.923177    
    453000   299.58273      0.89299707     0.71947525     1.6124723      194.96843      107.56067      183.7363      -83.326192     -101.33261      18.494177     -1836.6449      13.817683      149.61266    
    454000   299.83633      0.89375299     0.72141098     1.615164       194.99378      107.57079      183.75299      152.14374      148.26449      98.774894     -1674.9971     -160.23519      11.387045    
    455000   299.9014       0.89394694     0.7201113      1.6140582      194.96391      107.58903      183.72544     -170.33011     -202.68347      125.00134     -1651.1834     -91.551727      116.6626     
    456000   300.30888      0.89516158     0.72088001     1.6160416      194.91228      107.57676      183.64838     -62.2753        54.355655      105.75476     -1580.1024      18.221247      208.31404    
    457000   299.71103      0.8933795      0.72133056     1.6147101      194.89948      107.55901      183.7321       182.09206      171.24222     -26.60297      -1719.0042     -103.27855      141.53642    
    458000   300.51775      0.89578417     0.72081307     1.6165972      194.90491      107.55301      183.73475      144.89579     -194.4432      -171.17845     -1937.5016      1.2123162      56.425697    
    459000   300.02709      0.8943216      0.71918965     1.6135113      194.79237      107.5309       183.65749      82.980785      471.59771     -72.23067      -1659.9623     -64.883907     -3.4274091    
    460000   299.78277      0.89359335     0.72022177     1.6138151      194.8534       107.57708      183.68418      73.392278     -144.84487      16.131728     -1659.9884      9.1761364      119.13839    
    461000   299.59006      0.89301892     0.71895215     1.6119711      194.66643      107.55063      183.71571      226.41641     -224.52581      66.528326     -1773.3456     -21.216213      165.91803    
    462000   299.63154      0.89314255     0.71724061     1.6103832      194.60275      107.58567      183.68709      42.532739     -75.876992     -57.371914     -1584.1861      27.571544      23.331206    
    463000   300.16116      0.89472125     0.71760573     1.612327       194.57944      107.53596      183.61242      250.34294      59.526525     -187.58859     -1589.8536      111.09594      126.37543    
    464000   299.89308      0.89392215     0.71777516     1.6116973      194.48659      107.5691       183.53742     -245.12068     -234.42648      132.6204      -1590.6695     -82.203445      73.608161    
    465000   299.94168      0.89406701     0.71355943     1.6076264      194.45764      107.5658       183.51598      147.28616      175.02635     -212.01689     -1637.7214      2.5712524      111.31215    
    466000   300.21799      0.89489066     0.71501512     1.6099058      194.39058      107.5604       183.57696     -96.658447     -11.354578      70.479087     -1630.6726      31.599187      44.127041    
    467000   299.85868      0.89381961     0.71614889     1.6099685      194.28116      107.53374      183.59552      116.55419     -198.69609     -91.271006     -1902.8162     -20.325361      36.878868    
    468000   300.14457      0.89467179     0.71641637     1.6110882      194.25568      107.57314      183.53811     -148.52067     -226.45193     -148.25272     -1645.8981      98.822554      86.226952    
    469000   299.91904      0.89399952     0.71503639     1.6090359      194.19687      107.55348      183.45067      106.03677      306.5399      -60.40942      -1585.3845     -117.8546       203.91879    
    470000   300.30527      0.89515082     0.71309457     1.6082454      194.11401      107.59967      183.45373      281.98077     -80.5395        34.378237     -1612.8233     -33.4265       -130.64883    
    471000   300.17188      0.89475319     0.71471787     1.6094711      194.05383      107.59318      183.47074     -35.023682      37.163262      65.586442     -1601.4724     -144.92034      130.3479     
    472000   299.34707      0.8922946      0.71290094     1.6051955      194.03925      107.55418      183.42437     -374.5711      -298.3564      -196.25731     -1801.5663     -79.595224      96.320185    
    473000   299.8479       0.89378749     0.71327522     1.6070627      193.93541      107.51273      183.34089      216.44491     -7.6252029      112.08658     -1534.2378     -110.34952      63.834577    
    474000   301.26258      0.89800435     0.71042758     1.6084319      193.92459      107.55908      183.35054     -197.10061      145.50533      96.119099     -1513.6399     -9.5688397     -44.906139    
    475000   299.94685      0.89408244     0.71138669     1.6054691      193.79136      107.59638      183.33449      51.063473      153.49679     -68.806811     -1484.326      -79.371658      98.904782    
    476000   299.76515      0.89354083     0.71014738     1.6036882      193.71849      107.55121      183.27303     -251.80787      208.72258      43.2158       -1717.5315      17.110248      85.742318    
    477000   300.046        0.89437796     0.71022848     1.6046064      193.67548      107.50549      183.26239     -117.22789     -55.261144     -90.395783     -1579.4471     -145.0485       64.975177    
    478000   300.01864      0.89429643     0.70812431     1.6024207      193.51706      107.5226       183.23648      28.69034       341.79555     -11.58825      -1572.8604      127.52509     -17.542163    
    479000   300.26554      0.89503237     0.7084859      1.6035183      193.52539      107.47679      183.19565     -68.563137     -60.4429       -269.0148      -1509.0201     -27.2172        98.99452     
    480000   299.88758      0.89390575     0.70617443     1.6000802      193.4009       107.54401      183.19095      322.40707     -271.83625     -112.52359     -1727.1469      108.11112      100.8193     
    481000   300.11818      0.89459312     0.7088411      1.6034342      193.44879      107.51312      183.11434     -55.710663      35.612744      41.426141     -1356.1668     -40.583556     -39.41885     
    482000   299.53216      0.89284632     0.7071725      1.6000188      193.39999      107.48925      183.2169      -83.016963     -322.87682     -37.785674     -1340.7618      1.5771977      73.890358    
    483000   300.07532      0.89446537     0.70643356     1.6008989      193.34621      107.4634       183.1881      -280.93437     -109.94022     -107.83694     -1735.1775      133.95519      75.212443    
    484000   300.63252      0.89612627     0.70558742     1.6017137      193.16678      107.52165      183.1151       115.48688      73.462835      89.772277     -1594.8958     -71.651147     -32.583261    
    485000   300.05338      0.89439998     0.70554276     1.5999427      193.17934      107.5101       183.18245     -15.633083     -4.9933549      29.479626     -1448.5016      55.790305      11.453775    
    486000   300.82262      0.89669294     0.70389689     1.6005898      193.1266       107.42504      183.13143      237.58248      75.624135      69.926441     -1713.941      -56.263521      47.553005    
    487000   300.30483      0.89514949     0.70572352     1.600873       193.22497      107.47259      183.119       -408.4839      -260.7334      -146.39009     -1345.5938      37.950974     -7.3383485    
    488000   299.66539      0.89324344     0.70365294     1.5968964      193.0156       107.49049      183.06154     -149.71821      139.97137     -209.74645     -1527.9108     -27.613696     -14.042518    
    489000   300.37011      0.8953441      0.70410335     1.5994474      193.02562      107.45494      183.03059      74.685145     -187.03916      14.729945     -1198.9955      104.60395     -79.102897    
    490000   299.88242      0.89389038     0.70594618     1.5998366      192.86891      107.46209      183.11626      130.73381      45.363876     -217.15697     -1494.5676     -65.430424     -39.742091    
    491000   299.82561      0.89372104     0.70355631     1.5972773      192.89578      107.46641      182.94416     -94.874119     -243.59802     -8.195165      -1314.0248      39.558732     -50.756243    
    492000   299.96174      0.8941268      0.70231547     1.5964423      192.87042      107.4133       183.06292     -119.69334      144.63293     -48.127314     -1176.1444      108.06624     -226.18111    
    493000   299.96135      0.89412565     0.70238652     1.5965122      192.90266      107.41424      183.07615     -9.029277      -76.706801     -89.466183     -1212.8972      45.126354     -87.064072    
    494000   300.35923      0.89531166     0.70283669     1.5981484      192.78303      107.41126      183.08037      200.4562       62.226026      62.092041     -1226.9177      111.96717      90.819162    
    495000   300.03235      0.89433728     0.70222472     1.596562       192.7044       107.4213       183.01201     -153.47719     -22.36626       21.791683     -1454.6782     -57.939299      142.43826    
    496000   299.47226      0.89266777     0.70404955     1.5967173      192.70418      107.47674      183.0683       166.48546     -70.825582      114.41849     -1373.1459     -72.401997      54.648421    
    497000   300.00792      0.89426446     0.69970952     1.593974       192.72273      107.39795      183.08121     -148.33453     -298.30308     -42.462601     -1072.4721     -41.102932      154.54882    
    498000   299.78487      0.89359961     0.70374495     1.5973446      192.74794      107.41727      183.11679      254.31799      325.65401      71.484698     -1196.5323     -14.706864      52.067269    
    499000   299.25305      0.89201433     0.70223901     1.5942533      192.56968      107.40022      182.99736      70.359922      207.54246      179.92788     -1056.1414      108.76105     -70.310794    
    500000   300.49802      0.89572536     0.70278485     1.5985102      192.59373      107.39336      183.02334     -310.22275      134.05401     -29.148381     -1182.9416      11.580537      79.831232    
    501000   299.68466      0.89330089     0.70200709     1.595308       192.52056      107.43303      183.06302     -111.02463     -219.71015      62.567908     -1063.6405     -63.002569      67.312336    
    502000   300.19993      0.89483682     0.70219366     1.5970305      192.37473      107.4016       182.98269      96.672953      139.86743     -144.36101     -1140.5993     -1.5884111      73.065627    
    503000   300.12818      0.89462293     0.70049366     1.5951166      192.42157      107.37405      182.95346      312.23872     -146.16811      105.37937     -1346.5579      54.658977      38.757726    
    504000   300.26056      0.89501753     0.70001984     1.5950374      192.30962      107.32538      182.94106     -94.201362      220.47145      93.138757     -1155.9177      86.286975      110.59132    
    505000   300.17907      0.89477464     0.69835551     1.5931302      192.431        107.4126       182.98759     -210.11405     -37.026637      186.98231     -1017.2931     -110.73531      41.99665     
    506000   299.67278      0.89326548     0.70144078     1.5947063      192.27809      107.43831      182.96164      82.511565     -32.436575      11.272857     -944.45158      9.7084006     -22.237681    
    507000   300.104        0.89455086     0.70071111     1.595262       192.14833      107.39581      183.02518     -155.96282      188.5311       116.61897     -1324.2409      179.29841      25.03847     
    508000   300.55827      0.89590497     0.69960546     1.5955104      192.30289      107.31553      182.99647      474.82037      493.05536      10.865658     -1082.3968      51.455674     -43.936801    
    509000   299.79477      0.89362911     0.69796478     1.5915939      192.20077      107.3684       183.11129      149.34314      19.886775     -51.485121     -1008.3597      42.432433      39.583649    
    510000   299.80802      0.8936686      0.69967309     1.5933417      192.18828      107.40961      182.93982      64.764272     -203.59911      101.31483     -1028.0298     -39.561251      57.745737    
    511000   299.83524      0.89374975     0.69775446     1.5915042      192.17856      107.31684      182.87974      332.47474      216.34426     -60.082631     -997.50243     -2.1468028     -154.51593    
    512000   299.92136      0.89400646     0.69760944     1.5916159      192.08162      107.32648      183.05326      53.726464      124.39249     -42.648359     -1147.0071      125.16917      84.860891    
    513000   300.2999       0.89513481     0.69569692     1.5908317      192.00858      107.34882      182.82821      338.87756      333.75993     -34.56017      -1155.0261      87.450175      124.86679    
    514000   299.60859      0.89307415     0.69778711     1.5908613      192.01781      107.35073      182.90429      174.319       -212.31081     -63.639204     -1008.0501     -93.981042      12.060074    
    515000   300.00084      0.89424338     0.70064433     1.5948877      191.99813      107.28249      183.0796       17.719599     -77.41459       23.313004     -1101.2703     -27.902715      145.32761    
    516000   299.62645      0.89312737     0.69654587     1.5896732      192.14548      107.28809      183.00469     -83.783138      134.05333     -104.97376     -1050.7854     -0.46463836     68.423033    
    517000   299.8043       0.89365751     0.69813459     1.5917921      192.03236      107.3814       182.98621      9.0355865     -224.54483     -106.06905     -1273.9939     -63.64906       27.91098     
    518000   300.2091       0.89486414     0.69761941     1.5924835      192.08724      107.33375      182.99035      39.691291      165.86953      108.22733     -1194.234       30.550873      4.4480236    
    519000   300.43824      0.89554716     0.69671842     1.5922656      192.0506       107.33227      182.79681     -175.31459      353.28865     -12.343203     -902.39911     -158.68812      13.963324    
    520000   299.90663      0.89396253     0.6965912      1.5905537      192.0299       107.32345      182.9485      -145.74912     -108.68329     -55.319159     -1229.3817      28.821837      63.083546    
    521000   299.65309      0.89320679     0.6982417      1.5914485      191.93657      107.33875      182.99761     -138.39125      68.66941      -226.18486     -1084.0066     -51.998182     -20.331718    
    522000   300.25604      0.89500405     0.6972104      1.5922145      191.90185      107.28826      183.05091     -199.18188     -65.572044     -264.59193     -858.52686     -88.744596     -73.180096    
    523000   300.46682      0.89563236     0.69646691     1.5920993      191.99706      107.31193      182.97508     -117.13556     -0.6499064      43.225789     -990.79709      122.63389      20.069028    
    524000   300.48369      0.89568263     0.69667384     1.5923565      191.95961      107.30475      182.90236     -194.26487     -128.18379     -140.4421      -1011.1351     -65.53618      -70.602039    
    525000   300.09264      0.894517       0.69856879     1.5930858      191.95579      107.32023      183.04503      320.98436      358.66287      64.583064     -1075.7701     -121.81611      58.468825    
    526000   300.26106      0.89501902     0.69695306     1.5919721      192.04046      107.25688      182.93344      367.4397       280.74787     -46.517603     -828.24752      56.592696      125.3874     
    527000   299.94872      0.89408802     0.69486803     1.5889561      191.82548      107.29723      182.93346     -280.67399     -139.714        21.124294     -1295.4769     -94.013091      68.413931    
    528000   300.70089      0.89633008     0.69374411     1.5900742      191.80271      107.2885       183.02624      199.92856     -229.30524     -191.46301     -950.01355     -114.52264     -27.913463    
    529000   300.03519      0.89434575     0.69670976     1.5910555      191.79111      107.31792      182.92516     -289.35021     -40.799695      35.936166     -882.42769      84.407161     -88.88544     
    530000   300.30017      0.8951356      0.69654739     1.591683       191.8011       107.34679      182.9251       314.03526      147.16923      87.843334     -1048.0023      174.5707      -47.139472    
    531000   299.91708      0.8939937      0.69489786     1.5888916      191.85733      107.31086      182.74341     -106.71274     -48.310575      250.26507     -1050.5545     -20.008311      3.3710153    
    532000   300.05832      0.89441471     0.69617104     1.5905858      191.81215      107.29773      182.94494      247.56797     -41.927916     -33.130859     -1037.7017     -32.075937      118.7139     
    533000   300.1173       0.89459051     0.69534682     1.5899373      191.75489      107.32064      182.9499      -184.62866     -243.98982      325.4318      -1064.1382      57.746679      43.626071    
    534000   300.22796      0.89492037     0.69403163     1.588952       191.74353      107.27087      182.88301     -265.47422     -42.529041      94.530586     -1191.548       27.726613     -19.5135      
    535000   300.31505      0.89517996     0.69740337     1.5925833      191.75622      107.29179      182.84478      160.39575     -31.700128     -69.087209     -950.15611     -64.735393     -41.72795     
    536000   300.36914      0.8953412      0.69577615     1.5911173      191.69983      107.23379      182.98559      7.6060241      102.49708      43.19821      -1109.9945      0.12550764     98.453745    
    537000   300.73691      0.89643743     0.69744312     1.5938805      191.78092      107.21776      182.86772      114.91097      0.087495575   -71.077422     -1060.2522     -189.23824      113.53616    
    538000   299.78534      0.89360099     0.69617628     1.5897773      191.76676      107.27345      182.88179      15.381444      171.79601     -46.270944     -915.95597     -82.645025     -4.8032695    
    539000   299.84432      0.89377682     0.6963452      1.590122       191.73014      107.31357      182.93426      68.9209        55.083756     -158.51382     -1029.4166      162.27427      32.681734    
    540000   300.29698      0.89512609     0.69371821     1.5888443      191.7328       107.22513      182.86163     -207.8176      -18.525801      70.888667     -1083.155       36.537719      22.389248    
    541000   299.99265      0.89421896     0.69352952     1.5877485      191.67311      107.25423      182.7875       75.808003      18.501967      32.772703     -983.25596     -39.081282      109.35822    
    542000   300.52092      0.89579363     0.69253657     1.5883302      191.72984      107.24713      182.88868      204.54668      253.21554      184.61451     -918.31039     -10.584191      20.541905    
    543000   300.07033      0.89445049     0.6950516      1.5895021      191.65208      107.21741      182.85084     -138.55705      346.34418      29.658814     -973.52228      136.18222      63.807848    
    544000   299.38882      0.89241906     0.69444831     1.5868674      191.58041      107.22146      182.90848      177.70589      386.78511     -79.610468     -1190.8028     -167.78567     -39.67444     
    545000   299.55732      0.89292131     0.69338665     1.586308       191.67695      107.19547      182.72797     -385.6042      -254.43285     -84.278618     -1125.1017     -85.484482      51.448641    
    546000   299.89213      0.89391932     0.6935741      1.5874934      191.58864      107.20589      182.85907     -58.615668      168.85005     -30.916661     -971.49179     -141.22608      55.303355    
    547000   299.59051      0.89302024     0.69387913     1.5868994      191.62058      107.20653      182.86001      204.67253      248.27154     -72.163538     -843.41802      76.040767     -6.9640389    
    548000   300.03571      0.8943473      0.69373021     1.5880775      191.53619      107.28288      182.90233     -245.64263     -89.215963      29.674317     -943.93712      33.216122      96.860023    
    549000   299.879        0.89388019     0.6927518      1.586632       191.56193      107.2217       182.90374      140.14919      158.663        53.57975      -919.413        40.15199      -8.7628934    
    550000   299.59611      0.89303693     0.69375914     1.5867961      191.49027      107.25991      182.8408      -172.70439     -187.59723     -84.928317     -1090.6474      179.40412      44.981478    
    551000   300.10256      0.89454657     0.69201274     1.5865593      191.62329      107.18899      182.84233     -145.10435      110.65149     -63.125772     -880.86969      10.1013        111.8164     
    552000   299.22672      0.89193587     0.69282873     1.5847646      191.57948      107.19057      182.92427      317.40147      77.429137      184.62667     -912.99226     -82.880346      29.858417    
    553000   300.53154      0.89582527     0.69678667     1.5926119      191.76205      107.1946       182.88268     -144.53499     -351.41794      21.463895     -1010.8842     -33.0196       -33.078591    
    554000   299.97159      0.89415618     0.69375317     1.5879094      191.53817      107.21051      182.94908     -227.67009     -61.055842      7.0077887     -853.40943      8.5290437      24.510149    
    555000   300.63037      0.89611988     0.69356826     1.5896881      191.59421      107.22177      182.86744      174.53012     -224.87551      147.77238     -907.58676      117.27552     -3.4049048    
    556000   299.87165      0.89385827     0.69308694     1.5869452      191.53555      107.23333      182.93775     -70.815294     -29.561491     -45.856798     -953.98948     -73.362285     -60.73175     
    557000   299.17091      0.8917695      0.69507875     1.5868482      191.55628      107.19925      182.92259     -203.81557     -164.25726     -156.8708      -822.77588      40.181199      0.27198254   
    558000   299.7662       0.89354396     0.69158163     1.5851256      191.49363      107.19357      182.88327     -319.26731     -404.68181     -179.41792     -899.71881      113.35668     -95.306401    
    559000   299.42567      0.8925289      0.69313692     1.5856658      191.53396      107.2158       182.78696     -319.66954     -243.13131     -23.97721      -973.19174      70.628783     -7.7327013    
    560000   300.11862      0.89459445     0.69435867     1.5889531      191.47459      107.19758      182.89953      238.52439      116.293        57.075635     -999.79043     -7.7296267      167.5194     
    561000   300.09506      0.89452421     0.69255991     1.5870841      191.43767      107.18441      182.9383      -322.80658     -22.347255     -8.1734521     -938.25018      13.559995      38.062442    
    562000   300.15557      0.8947046      0.69356308     1.5882677      191.48444      107.20951      182.91867     -150.36882     -117.95149     -1.7231126     -1098.4605     -56.525421      32.875916    
    563000   299.34288      0.89228212     0.69256473     1.5848468      191.51515      107.22843      182.84327      30.952377      229.64046      214.26507     -985.80761      143.12792      39.626387    
    564000   299.68566      0.89330388     0.69204972     1.5853536      191.49597      107.14598      182.80128     -89.694348     -23.250762     -169.09402     -933.77561      19.342156     -49.846332    
    565000   300.3554       0.89530023     0.69357103     1.5888713      191.32236      107.14447      182.85513     -82.559291      145.03401     -89.115648     -939.06303     -123.97333     -44.085518    
    566000   299.9791       0.89417856     0.69048059     1.5846592      191.35932      107.1944       182.82507     -311.66406     -321.12476     -349.53697     -989.90198     -206.67906      68.13367     
    567000   299.76088      0.89352809     0.69310374     1.5866318      191.37454      107.16038      182.86362     -9.9793808     -232.50385     -26.154674     -854.73874     -11.269634     -59.585835    
    568000   300.12143      0.89460282     0.69114993     1.5857528      191.22681      107.11296      182.8184       122.83305      33.615734     -139.75571     -976.77286     -29.210321     -37.35616     
    569000   300.72277      0.89639529     0.68961188     1.5860072      191.23252      107.15043      182.9263      -94.120047      133.5726      -40.6731       -863.6016       66.941026      62.62107     
    570000   299.07905      0.89149568     0.69110141     1.5825971      191.26419      107.12314      182.8882       82.074177      485.56278      60.35864      -838.02403      38.951792     -1.7822849    
    571000   299.95134      0.89409582     0.69285681     1.5869526      191.18955      107.14056      182.82738      62.802202     -223.2738       111.87499     -1030.0504      1.8770793     -16.024094    
    572000   298.97668      0.89119053     0.69155824     1.5827488      191.23799      107.13581      182.77667     -84.888709     -17.152242      333.78141     -773.23389      57.343337      45.469267    
    573000   300.04882      0.89438637     0.69064172     1.5850281      191.10242      107.15292      182.74548      339.43359      81.212906     -18.008653     -1115.1842     -39.995689      44.222305    
    574000   299.93341      0.89404238     0.69024223     1.5842846      191.12416      107.09141      182.82724     -19.721692      189.753        19.826523     -832.87456     -64.834612      21.508515    
    575000   300.49175      0.89570667     0.69243413     1.5881408      191.08098      107.12462      182.93016     -62.186433     -40.323963     -59.264158     -962.53284     -137.43052      118.55822    
    576000   299.61152      0.89308287     0.69120903     1.5842919      191.06051      107.12425      182.75563      292.93639      288.74705      81.166711     -1144.9241     -54.530153     -34.071924    
    577000   299.7956       0.89363158     0.69176323     1.5853948      191.04462      107.17168      182.82074      147.92147     -67.915437      32.472964     -897.89707     -8.7510657      36.214761    
    578000   300.10384      0.89455038     0.69054736     1.5850977      191.01966      107.17178      182.82363      94.24913       22.356924     -56.992868     -1000.8277      1.6010024     -20.534238    
    579000   300.16795      0.89474148     0.69064119     1.5853827      191.07257      107.16559      182.85047     -148.27158     -534.39883     -72.130539     -1059.6547     -68.343949      96.249491    
    580000   300.71637      0.89637622     0.68936591     1.5857421      191.24437      107.08295      182.82441     -464.17607     -68.211274     -131.84097     -994.02335      15.950402      54.608697    
    581000   300.8139       0.89666694     0.68980978     1.5864767      191.07584      107.13374      182.87759     -67.187368     -255.57054      84.020632     -1134.2869      11.774819     -41.265101    
    582000   299.66796      0.89325112     0.69019517     1.5834463      191.0237       107.16089      182.79216      9.7901995     -126.56147      84.795869     -986.5567       134.83354      54.83757     
    583000   299.8459       0.89378153     0.68909479     1.5828763      190.96207      107.11355      182.77469      104.62573     -111.74248      213.551       -1346.9206     -39.263137     -67.356797    
    584000   299.67158      0.89326191     0.68997122     1.5832331      191.09101      107.05758      182.85992      119.74893     -35.087006      36.237054     -1035.3795     -148.86336      90.457392    
    585000   300.04067      0.89436209     0.69048472     1.5848468      191.05843      107.1362       182.76814      95.566943     -195.66435     -75.220891     -1115.907       78.997081      48.324335    
    586000   299.79238      0.89362197     0.69041809     1.5840401      191.06319      107.14549      182.77381     -93.891796     -12.096854     -125.28328     -1092.2973      7.3628536     -69.261082    
    587000   300.24556      0.89497283     0.68865323     1.5836261      190.98795      107.11198      182.83226      200.74203     -195.40449     -43.788921     -1183.3075     -15.358883     -102.11057    
    588000   300.04816      0.8943844      0.68975021     1.5841346      190.92695      107.11293      182.80673     -0.51947718     573.91822     -51.4343       -849.66785     -41.16749      -88.986932    
    589000   299.67851      0.89328257     0.68811019     1.5813928      191.04133      107.10112      182.7794      -14.084478      50.469102      171.63214     -854.95649     -114.19095      57.205996    
    590000   300.62263      0.8960968      0.68914932     1.5852461      190.90104      107.12325      182.86978      121.91492     -95.012126      55.502732     -1060.1795     -201.00135      74.749755    
    591000   299.8721       0.89385961     0.69119723     1.5850568      191.00163      107.16615      182.73312      16.428422      186.12932     -90.277444     -1107.147      -6.2846573      89.412919    
    592000   299.40862      0.89247807     0.68855069     1.5810288      190.96041      107.16106      182.87724     -180.04734      16.878421     -44.720057     -908.42501     -42.401123     -47.541276    
    593000   300.76576      0.89652345     0.69012353     1.586647       191.05553      107.12114      182.8055       64.652392      48.256052      167.68992     -1466.5043     -31.386897      32.770445    
    594000   299.7259       0.89342383     0.68870983     1.5821337      190.98936      107.13232      182.73696      269.68423     -35.961326     -4.1659363     -927.45603      34.195539      9.3844019    
    595000   299.87276      0.89386158     0.6887504      1.582612       190.94462      107.0357       182.8775      -224.58316      133.68428     -113.9989      -1064.3332      71.103971     -100.42087    
    596000   300.25569      0.89500302     0.68948051     1.5844835      190.96271      107.07077      182.92753     -267.90189      52.475709     -150.0707      -991.97938     -27.11204       140.83748    
    597000   299.8996       0.89394157     0.69031011     1.5842517      191.01844      107.06289      182.83931     -137.2997       149.141       -174.04095     -1088.7686      114.54963     -83.46071     
    598000   300.56114      0.89591349     0.6893077      1.5852212      191.0567       107.0903       182.76692      276.66885     -309.29168     -31.614461     -1028.6677     -19.477887      105.53737    
    599000   300.05166      0.89439485     0.69273112     1.587126       191.01872      107.17886      182.80699     -225.24929      213.11545      48.672547     -1113.0629     -72.357607     -77.544679    
    600000   299.77733      0.89357713     0.68951917     1.5830963      190.95616      107.1371       182.84408     -252.70384     -60.392045     -377.9872      -1005.9527      4.4997786      7.5462424    
    601000   299.53626      0.89285854     0.68822347     1.581082       191.00061      107.10329      182.69714     -46.880967     -234.29322      2.9775714     -871.53356      16.400159     -0.22773024   
    602000   299.68139      0.89329114     0.69219998     1.5854911      191.16125      107.11903      182.80196     -270.31984      168.07118      33.98737      -951.23623     -125.59134     -40.383583    
    603000   300.56702      0.89593105     0.68924966     1.5851807      191.05866      107.05792      182.84141      210.08842     -187.95905     -120.77602     -1056.0603      42.218813      48.788354    
    604000   299.72097      0.89340913     0.68941719     1.5828263      190.94857      107.07739      182.74467      135.89922     -127.11111      135.39825     -851.52263     -46.82202       20.470064    
    605000   300.71603      0.89637521     0.69110647     1.5874817      191.00706      107.0745       182.80692      113.97208      272.45939      19.618863     -951.48463      4.2061556     -119.39131    
    606000   300.15145      0.8946923      0.68992573     1.584618       191.02552      107.13282      182.72881     -53.337763      205.92085     -225.16669     -818.26274      27.58245       133.73077    
    607000   300.51024      0.8957618      0.68774131     1.5835031      191.08153      107.12011      182.7915      -152.56373     -152.06568     -186.68193     -963.956        23.956509      171.60701    
    608000   300.0487       0.89438604     0.68981348     1.5841995      191.04506      107.05514      182.73186      35.830665      236.95446      135.72186     -1059.2564      1.0944663     -102.81135    
    609000   299.6989       0.89334334     0.69102123     1.5843646      191.11542      107.04927      182.83896     -87.906642     -12.309553     -70.065598     -1056.108      -40.306969      62.954243    
    610000   299.55995      0.89292914     0.68870785     1.581637       191.02346      107.10459      182.75229     -77.2435       -83.447251     -31.89646      -989.85386      94.96         -120.96087    
    611000   299.84245      0.89377123     0.68759301     1.5813642      191.03563      107.14773      182.65833     -14.839587     -199.14218     -11.801909     -972.03696      74.318487      69.725854    
    612000   300.12175      0.89460377     0.68864953     1.5832533      191.01238      107.07624      182.77399     -16.501721     -362.29155     -129.41134     -1180.6851     -133.81765      39.295928    
    613000   300.00681      0.89426116     0.69130188     1.585563       191.05846      107.10381      182.8729      -17.066292      46.799728     -84.731711     -1126.0001      4.9688537      105.51635    
    614000   300.57535      0.89595587     0.68898963     1.5849455      191.12553      107.11542      182.85744     -177.40639      112.01661     -6.592227      -820.12831      118.69432      29.964806    
    615000   300.01878      0.89429685     0.68950614     1.583803       191.0586       107.09933      182.79883     -47.393532     -3.0508625     -100.36191     -1081.4583      77.722496      31.913297    
    616000   299.96786      0.89414505     0.68839288     1.5825379      190.99991      107.12152      182.74458     -386.43883      3.7131279      0.66009746    -1086.9618      60.957794      84.702282    
    617000   299.81008      0.89367476     0.69084096     1.5845157      191.01651      107.12768      182.84538      6.8546182     -230.58306     -32.252269     -1310.908      -2.2049101      8.970102     
    618000   299.45432      0.89261429     0.68761373     1.580228       191.07248      107.08256      182.70009      179.42226     -341.5963       146.29865     -999.53268     -21.175464      29.411517    
    619000   299.79014      0.89361531     0.68815509     1.5817704      191.12698      107.10922      182.69988     -482.88922     -94.832469     -55.876007     -962.09202     -4.4044156     -13.37724     
    620000   300.10134      0.89454293     0.69019523     1.5847382      191.0305       107.11307      182.75311     -118.13912     -39.697667     -80.252585     -1182.0819      84.690725      19.982045    
    621000   300.14511      0.89467341     0.68730719     1.5819806      191.01931      107.10457      182.79221     -346.83828     -254.71288     -34.251618     -789.93651      147.89191      79.036025    
    622000   299.41396      0.89249399     0.69080648     1.5833005      191.09882      107.13183      182.72494      230.79478      237.75683      9.5847767     -1174.4043     -47.983433      1.1103097    
    623000   300.21347      0.89487716     0.68866526     1.5835424      191.0964       107.12107      182.65673     -215.23528      289.52306      111.72588     -1085.6687     -102.80521      70.170267    
    624000   300.25759      0.89500867     0.69013553     1.5851442      191.07438      107.11631      182.75708     -69.188948     -228.31281     -1.4911312     -1211.8608     -166.35887      57.85867     
    625000   299.64254      0.89317535     0.69150297     1.5846783      190.91713      107.14662      182.86523      264.74588     -27.324961     -43.638583     -1245.8994     -58.89378       16.421779    
    626000   299.8799       0.89388286     0.69061302     1.5844959      191.02219      107.06314      182.80223     -114.79365      267.5541       198.84116     -1164.5574     -160.01945     -156.30143    
    627000   300.75536      0.89649242     0.68816144     1.5846539      191.00088      107.14868      182.72182     -55.877008      303.05435     -221.51515     -1493.6609      38.47668      -5.8040675    
    628000   300.36611      0.89533216     0.68924299     1.5845752      191.03621      107.1392       182.6866       215.78791      287.26489      29.360478     -1228.127       47.083774     -124.03682    
    629000   299.29611      0.89214271     0.69073933     1.582882       191.0057       107.12984      182.83517      397.70165      343.79827      119.9349      -1347.3644     -1.4127567     -57.510018    
    630000   300.01314      0.89428002     0.690552       1.584832       190.98059      107.1261       182.80614      157.89784      163.46022     -29.274558     -1224.2219      43.716032      46.551979    
    631000   300.7063       0.89634621     0.69144672     1.5877929      191.07567      107.11367      182.70325     -395.09513     -171.65714      166.65068     -1246.0194      17.772535     -18.376126    
    632000   300.31367      0.89517585     0.68914767     1.5843235      191.08156      107.09938      182.63597     -196.85961     -202.97738     -18.633537     -1287.2457     -66.083298      117.41466    
    633000   300.06987      0.89444912     0.69022657     1.5846757      191.06038      107.0682       182.79232      29.318475      231.76233      102.57691     -1322.9508      113.66796      101.41404    
    634000   300.89516      0.89690915     0.68754652     1.5844557      191.04278      107.11276      182.76947      123.70057     -134.32981     -53.832818     -1514.8037     -43.612274      34.180346    
    635000   299.72271      0.89341432     0.68759133     1.5810057      191.07636      107.10562      182.693        284.15524      144.98474     -31.16073      -1375.5196     -78.744687      35.180172    
    636000   300.58339      0.89597984     0.68979465     1.5857745      191.07699      107.09761      182.66637      24.371582     -95.883168     -106.61626     -1451.4662      97.142327      130.66437    
    637000   300.61238      0.89606625     0.69014961     1.5862159      191.12248      107.07993      182.72901      206.19426      104.3747       56.354236     -1334.3455      76.535269      63.992637    
    638000   299.95447      0.89410514     0.69147237     1.5855775      191.16098      107.0845       182.75459      149.6065       162.80208      131.36119     -1458.8685     -59.352327      66.232145    
    639000   299.86762      0.89384627     0.68879929     1.5826456      191.15167      107.10924      182.68556     -273.28872     -115.43206      213.06003     -1468.8568     -11.47762       58.440963    
    640000   300.13232      0.89463527     0.69151351     1.5861488      191.11747      107.11604      182.63753     -54.985535      18.48317       116.88404     -1437.1617     -78.879134     -56.878809    
    641000   300.3437       0.89526537     0.68937831     1.5846437      191.1397       107.11102      182.75023      251.59353      222.78892     -3.7137655     -1199.7915      79.883308      26.752885    
    642000   299.98534      0.89419717     0.68962402     1.5838212      191.07931      107.07578      182.69492      224.16322      123.51128     -26.155244     -1477.1514      153.7178       74.904352    
    643000   300.50914      0.89575852     0.69167901     1.5874375      191.09723      107.1225       182.70237     -216.49462     -371.37187      60.918842     -1546.5588     -89.757334      131.45262    
    644000   299.6383       0.8931627      0.69123637     1.5843991      191.2089       107.12185      182.75145     -148.90556     -116.41779     -75.17405      -1376.6012     -8.33776       -48.038258    
    645000   300.25735      0.89500797     0.69086309     1.5858711      191.17927      107.08437      182.69382     -14.619769     -41.792715      65.133089     -1260.082       33.199297      57.841779    
    646000   299.8814       0.89388733     0.69062945     1.5845168      191.10518      107.09193      182.78358      106.52107      222.14939     -17.238132     -1232.9566     -81.610515      13.851172    
    647000   300.24457      0.89496988     0.68776449     1.5827344      191.12613      107.12854      182.6811       421.07846     -33.285014      172.39633     -1191.3213     -62.48035       190.69031    
    648000   301.13779      0.89763239     0.68982424     1.5874566      191.22003      107.05756      182.75406     -2.3097927     -51.664848     -26.447518     -1338.2038     -44.896512      79.650867    
    649000   300.20278      0.89484531     0.68959188     1.5844372      191.15351      107.1013       182.73468     -225.40621      251.31744      89.245854     -1362.0039     -143.01892      42.054645    
    650000   300.5306       0.89582248     0.68948134     1.5853038      191.2479       107.09176      182.77252     -230.91836      228.98113     -118.31736     -1364.6288      65.651938      63.451187    
    651000   300.74182      0.89645207     0.69046288     1.586915       191.18849      107.10632      182.74296     -146.75874     -71.317819     -10.785328     -1386.4904      54.04298      -77.817456    
    652000   300.21785      0.89489024     0.69073664     1.5856269      191.18184      107.14967      182.54207     -115.00475      12.085573      84.59916      -1176.6776     -29.125194     -89.694631    
    653000   300.25405      0.89499814     0.69013016     1.5851283      191.19738      107.11256      182.6441       36.933007      187.73411      224.68314     -1191.6319     -153.13827     -3.5088157    
    654000   299.13502      0.89166253     0.69190945     1.583572       191.28858      107.09517      182.75355     -3.9679189      72.110606     -72.626662     -1372.0663     -13.236143      102.66499    
    655000   300.38461      0.8953873      0.69091847     1.5863058      191.28581      107.05449      182.71827     -45.673471     -68.654744      27.914297     -1366.2649      21.937561     -32.856796    
    656000   300.31001      0.89516495     0.68918873     1.5843537      191.2102       107.1365       182.68743     -233.47058     -367.45447     -54.837968     -1304.3694     -217.07007      109.34282    
    657000   300.33857      0.89525006     0.69308945     1.5883395      191.21645      107.15043      182.66712     -53.370243      158.56982      39.938551     -1411.6995     -73.529234      39.300168    
    658000   300.38098      0.8953765      0.68905437     1.5844309      191.11661      107.14511      182.67659      183.52405      216.60173     -83.53845      -1410.2483      18.653817     -12.732684    
    659000   299.86786      0.89384698     0.69128581     1.5851328      191.23914      107.12287      182.6614       280.15865     -6.0049712      135.40229     -1217.269      -67.474017      90.343805    
    660000   300.44799      0.89557623     0.68989161     1.5854678      191.32781      107.0999       182.5525      -87.957773      201.50615      206.24361     -1274.1425     -91.213818      32.473853    
    661000   300.25545      0.8950023      0.68999134     1.5849936      191.32699      107.06623      182.73353      204.49172      75.448206      48.205918     -1595.1064     -34.744395      7.7276696    
    662000   299.85355      0.89380433     0.69244633     1.5862507      191.197        107.10222      182.66548      77.655681      13.781477     -133.68106     -1283.3371     -97.801879      10.543002    
    663000   299.62127      0.89311195     0.69061186     1.5837238      191.24926      107.07848      182.74177      245.10937     -17.563241      166.25386     -1120.8681      28.251271     -127.92004    
    664000   300.03236      0.8943373      0.69010403     1.5844413      191.31814      107.03515      182.70589     -136.12495     -198.54673     -75.577394     -1528.4905     -25.403424      186.20077    
    665000   300.09916      0.89453642     0.68907356     1.58361        191.23729      107.06939      182.71297      37.043574      39.42188      -2.1030917     -1190.2765     -17.456526      6.2289137    
    666000   299.42502      0.89252695     0.689164       1.581691       191.31105      107.07049      182.64989      496.10751      65.340567      159.48926     -1529.6187      86.5153        5.1302753    
    667000   300.5866       0.89598939     0.6918238      1.5878132      191.38499      107.03311      182.82899     -15.627166      328.41036      129.50417     -1401.4629     -36.80282       106.07091    
    668000   299.75485      0.89351012     0.69000237     1.5835125      191.25379      107.08045      182.7366      -138.00327     -262.9045       30.243495     -1425.4312      112.67068     -10.208367    
    669000   300.33158      0.89522925     0.69204755     1.5872768      191.19263      107.09515      182.74246      35.285296      9.7681829      84.524427     -1308.2798     -128.54219      203.88274    
    670000   299.74486      0.89348033     0.68898469     1.582465       191.32072      107.07013      182.57501     -3.2819961      241.27522      306.39413     -1362.9641      10.556369      30.213728    
    671000   300.149        0.894685       0.69018284     1.5848678      191.33677      107.08346      182.68446     -361.11147      215.46751     -12.471552     -1239.9414     -78.460154      58.716716    
    672000   300.0072       0.89426231     0.69192215     1.5861845      191.30546      107.0749       182.74736      192.0417       126.72457     -149.8677      -1378.0688      137.25412      71.982383    
    673000   300.15584      0.8947054      0.68895048     1.5836559      191.29198      107.07355      182.74443     -18.495505     -246.24601      9.0878994     -1371.9299     -24.273053     -61.415944    
    674000   299.54627      0.89288839     0.69139738     1.5842858      191.14093      107.10036      182.69772      106.40904     -50.012902     -6.1760546     -1642.1515     -64.997105     -125.61025    
    675000   300.28519      0.89509095     0.69109197     1.5861829      191.23777      107.1136       182.703       -210.39768     -59.22506      -157.61819     -1586.1604     -42.948376      74.820196    
    676000   300.45803      0.89560615     0.68920529     1.5848114      191.31544      107.07038      182.74946      289.55859      139.45032      77.418239     -1417.5254     -53.339811     -49.242692    
    677000   300.23869      0.89495235     0.69100859     1.5859609      191.26565      107.04452      182.66907      165.81233     -253.36948     -41.315289     -1361.6525      81.432431      8.8407038    
    678000   299.04886      0.89140569     0.68991369     1.5813194      191.23033      107.10394      182.73773      351.59938      137.46194     -290.85739     -1375.4183      152.94458     -43.244059    
    679000   299.81147      0.89367889     0.6929756      1.5866545      191.24603      107.11965      182.78684     -252.8962      -119.44628     -165.18711     -1369.7396      47.111064     -15.40188     
    680000   299.91215      0.89397899     0.69012357     1.5841026      191.35308      107.14083      182.65779      31.21025      -558.88        -144.06156     -1179.0173     -6.689355       50.730931    
    681000   299.90472      0.89395685     0.69119268     1.5851495      191.26471      107.08631      182.80451     -0.67415077     208.90699      49.985099     -1362.2179     -101.42831      113.13754    
    682000   300.12176      0.89460381     0.69048242     1.5850862      191.24691      107.09335      182.71519      316.57058      232.33206     -131.87422     -1549.1101      40.179522      104.50381    
    683000   300.29522      0.89512084     0.69128118     1.586402       191.34256      107.08962      182.6039       62.602196     -88.172008      160.74035     -1430.1318      27.481688      6.7146659    
    684000   299.98853      0.89420667     0.69133999     1.5855467      191.44348      107.05164      182.78534     -109.24762      59.637236      232.78204     -1404.5721      139.98017      129.33703    
    685000   299.97544      0.89416766     0.69229522     1.5864629      191.29595      107.12672      182.86021      74.781544      363.16455      123.02037     -1431.8102      8.2106891     -10.616706    
    686000   300.2555       0.89500245     0.69087534     1.5858778      191.33546      107.08566      182.80401     -46.279573     -26.239771      91.949371     -1460.2524      135.94433      106.81009    
    687000   299.63318      0.89314744     0.69077162     1.5839191      191.30375      107.07457      182.71918      224.43369      147.01452      74.701943     -1580.7882     -26.038609      44.076202    
    688000   299.31774      0.89220717     0.69189842     1.5841056      191.31204      107.10371      182.75345      291.8537       98.3305       -190.84944     -1392.3023     -76.150379      53.633129    
    689000   300.56884      0.89593645     0.69144483     1.5873813      191.25761      107.09029      182.84013     -108.88726     -108.12374     -76.115143     -1452.0779     -37.302512     -35.028948    
    690000   299.6838       0.89329832     0.69057335     1.5838717      191.24887      107.04546      182.65608     -84.191687     -195.44679     -41.928101     -1397.836       18.058948     -36.748781    
    691000   300.21706      0.89488786     0.6922794      1.5871673      191.34695      107.06245      182.81306     -146.59028     -9.276414      -212.384       -1403.0334     -103.19146     -81.851651    
    692000   299.81852      0.8936999      0.69175704     1.5854569      191.23767      107.09013      182.78113      92.091306     -233.47286     -12.318669     -1480.5439     -21.82311      -38.206366    
    693000   300.40932      0.89546096     0.68991232     1.5853733      191.33554      107.08981      182.67608      20.579657      63.120885      69.585899     -1576.5477      166.28162      11.331713    
    694000   300.12013      0.89459895     0.6912549      1.5858539      191.35387      107.10215      182.85339      90.34171       15.146915     -157.30252     -1220.1064     -75.90232       124.33624    
    695000   299.19082      0.89182886     0.69345638     1.5852852      191.39303      107.04413      182.82867      251.97609      72.143842     -105.55363     -1387.9413      11.229538      129.24158    
    696000   300.39643      0.89542254     0.69008445     1.585507       191.34899      106.99012      182.68915     -94.207701     -133.46008      88.305379     -1569.3607      131.91884      120.71713    
    697000   300.3146       0.89517863     0.69235187     1.5875305      191.25424      107.0865       182.82924      257.12537      112.71097     -26.157969     -1255.7849     -79.169668      106.98042    
    698000   299.42768      0.89253489     0.69265544     1.5851903      191.27095      107.05709      182.75072     -81.823679     -213.24083     -24.333806     -1407.8219     -111.54651     -2.1833714    
    699000   299.85517      0.89380915     0.69188989     1.585699       191.2936       107.0479       182.73568     -69.984085      45.94197       42.734525     -1475.988      -55.620138     -19.326099    
    700000   300.22841      0.8949217      0.69417128     1.589093       191.3643       107.09234      182.81134     -81.08793      -217.15636      102.93016     -1499.8372      16.026054      123.3057     
    701000   299.88775      0.89390627     0.69060748     1.5845138      191.31048      107.08213      182.77151     -31.550477     -67.363844     -47.082486     -1191.8199     -9.7626656     -58.563846    
    702000   300.15135      0.89469201     0.69203616     1.5867282      191.33837      107.05223      182.83639     -136.69277      233.59992      149.80518     -1323.8747      6.1171109     -46.632038    
    703000   299.91602      0.89399054     0.69037178     1.5843623      191.24831      106.97649      182.95993     -104.05236      30.110522     -149.87937     -1293.7536      69.217773      3.7345345    
    704000   300.13805      0.89465235     0.69031758     1.5849699      191.27771      106.99553      182.78795     -197.43203      224.94494     -266.36113     -1224.0638     -47.547295     -7.117391     
    705000   299.92691      0.894023       0.69105539     1.5850784      191.40741      107.00835      182.78123     -67.881944      184.32862     -99.71266      -1303.3965     -19.812832      46.901996    
    706000   300.29522      0.89512084     0.69108186     1.5862027      191.35432      107.03074      182.89676      22.041127     -49.916184     -70.146755     -1332.3352      49.474515     -35.526282    
    707000   300.00967      0.89426968     0.69199885     1.5862685      191.26729      107.05656      182.82445      274.62852     -11.511446     -56.895819     -1397.0159      11.814141     -9.0100846    
    708000   300.21357      0.89487745     0.692393       1.5872705      191.26764      107.04401      182.78114     -65.735843      106.68167     -240.94682     -1382.9702      78.597603      17.567068    
    709000   299.61829      0.89310305     0.69096192     1.584065       191.17572      107.04704      182.76935      82.026086     -239.6143       232.87272     -1332.0759      52.795536      65.540897    
    710000   300.11234      0.89457571     0.69185342     1.5864291      191.27456      107.02994      182.73939      252.827       -139.00674      24.77259      -1421.8934     -103.84958      206.39971    
    711000   300.57386      0.89595143     0.69002855     1.58598        191.28313      107.03757      182.85762     -103.95974     -23.648003      105.05031     -1391.0581      43.297863      195.00472    
    712000   300.69342      0.89630781     0.69029024     1.5865981      191.17745      106.9798       182.85369      330.66528      347.74234      153.3773      -1203.8827      10.608615      244.9877     
    713000   299.85652      0.89381316     0.68958847     1.5834016      191.27159      106.9787       182.73568      324.29816      373.55019     -37.630302     -1449.2788     -81.968512     -43.314589    
    714000   299.66043      0.89322866     0.69100068     1.5842293      191.26722      107.00124      182.77067     -163.63566      131.04465      109.57805     -1693.1879      69.733312      46.440758    
    715000   299.56933      0.89295711     0.69208618     1.5850433      191.23816      106.99463      182.76975      89.760205      135.58835     -18.891355     -1746.4901     -59.793645      94.344632    
    716000   300.19448      0.89482056     0.6917678      1.5865884      191.20635      106.98298      182.72985     -289.05465     -98.811336     -131.19021     -1439.2841      1.1581439      110.57989    
    717000   300.16188      0.89472338     0.69093385     1.5856572      191.35008      106.96031      182.78792      90.368763     -297.7966      -46.237412     -1345.0103      42.676802      156.14251    
    718000   300.48857      0.89569718     0.69114698     1.5868442      191.23877      106.98266      182.81444      100.18477      345.86517     -58.778286     -1388.1262     -220.32075      4.8926585    
    719000   299.75833      0.89352048     0.69168493     1.5852054      191.18571      107.02311      182.88551      130.86108      17.254805      15.989046     -1556.9444      85.45744       45.283664    
    720000   300.2874       0.89509753     0.69194591     1.5870434      191.39062      107.0371       182.90045      1.3264916      17.341248      69.318793     -1567.8473      22.395893      77.541891    
    721000   299.65785      0.89322097     0.69037844     1.5835994      191.4532       107.02114      182.87792      59.85622       91.711499      158.75017     -1579.2325     -90.950379      68.321006    
    722000   299.94441      0.89407517     0.69075916     1.5848343      191.30812      106.99672      182.85448      143.22021     -143.67748      75.890173     -1364.7062      126.00821     -0.23879652   
    723000   299.32032      0.89221486     0.69188886     1.5841037      191.20558      107.04242      182.78355      89.903351      15.978448     -103.70262     -1589.1636     -66.911694      90.013417    
    724000   300.20678      0.89485723     0.69217703     1.5870343      191.28681      107.03128      182.73047      343.68521     -64.447047      124.93278     -1608.1698      91.163243     -9.6201662    
    725000   299.5102       0.89278087     0.69223615     1.585017       191.25581      107.00821      182.85203     -439.45799     -116.46407     -19.490345     -1448.3676      40.639992      116.94667    
    726000   300.08977      0.89450844     0.69314476     1.5876532      191.30452      106.96924      182.74039     -62.153358      111.20762      146.84269     -1669.8114     -39.530122      73.541123    
    727000   299.91784      0.89399595     0.68935414     1.5833501      191.31306      106.97386      182.8491      -18.191636      34.888936     -111.89129     -1538.3681      76.114295      96.941237    
    728000   300.65403      0.8961904      0.69084266     1.5870331      191.341        107.02979      182.83299     -234.01391     -34.273341     -26.357172     -1475.649       43.988595      140.39436    
    729000   299.58736      0.89301087     0.6893131      1.582324       191.32764      107.01476      182.84177      106.89685      85.511029     -69.704027     -1630.5612     -84.314411      148.55769    
    730000   299.40817      0.89247672     0.69092846     1.5834052      191.3136       106.94562      182.90111     -13.276659     -66.667911     -82.607572     -1497.1154     -115.99532      121.68279    
    731000   300.59723      0.89602109     0.68939298     1.5854141      191.24028      106.97646      182.77866     -9.4783715      72.976281      13.028476     -1646.2085     -55.848372      264.2983     
    732000   300.26377      0.8950271      0.69104128     1.5860684      191.39615      106.93059      182.84586      22.476841      67.074341      38.251371     -1631.3368      43.071505     -45.248067    
    733000   300.31301      0.89517389     0.69166627     1.5868402      191.2523       106.98332      182.78996     -178.92653     -12.619257      93.08248      -1631.8623     -23.635309      101.83978    
    734000   299.81573      0.8936916      0.69200538     1.585697       191.41244      107.00736      182.86639      385.01909     -87.761881      8.297607      -1553.0509      81.79219       121.91643    
    735000   299.95295      0.8941006      0.69224496     1.5863456      191.36617      106.97538      182.7755      -45.144818     -82.177141      257.30047     -1718.432      -127.94036     -34.204014    
    736000   300.38243      0.8953808      0.69162209     1.5870029      191.26423      107.01178      182.80854     -265.66288      314.55616      20.715052     -1598.1685      133.40151      35.445581    
    737000   299.93918      0.89405956     0.69011154     1.5841711      191.34976      106.97199      182.67573      402.07398      254.00408      98.750756     -1539.4996     -32.958105      32.283104    
    738000   300.12342      0.89460875     0.69054821     1.585157       191.41354      106.9663       182.78118     -187.70186      56.03174       110.45393     -1676.2685     -78.837791      69.580834    
    739000   299.72868      0.89343211     0.69228512     1.5857172      191.26644      106.99094      182.77811     -140.68991     -72.89301       77.124259     -1769.6539     -11.853705     -8.5262986    
    740000   299.72851      0.89343159     0.69296529     1.5863969      191.26543      107.01004      182.89727      75.931951      28.448724     -99.945187     -1785.9039      54.05068       47.22681     
    741000   299.8802       0.89388376     0.69036249     1.5842463      191.40292      107.0085       182.8152       197.5009       25.908905      39.480174     -1409.3661      181.17954      36.746054    
    742000   299.98072      0.89418339     0.69429481     1.5884782      191.41296      106.96557      182.85558     -169.72769      424.8944      -243.22817     -1925.2896      151.86113      77.782116    
    743000   300.33989      0.895254       0.68985823     1.5851122      191.41306      106.97377      182.79211      188.54934     -3.6132389     -60.321122     -1619.928       74.401703      88.996586    
    744000   300.03972      0.89435926     0.68970144     1.5840607      191.35091      107.02988      182.92938      161.11358     -21.257695     -60.82433      -1683.6637     -0.030038494    1.4472593    
    745000   299.90845      0.89396796     0.69020455     1.5841725      191.42885      106.98279      182.79167     -170.9463       17.93013       197.45452     -1866.4163      136.43991      133.63153    
    746000   299.19371      0.89183747     0.69150357     1.583341       191.37953      106.98998      182.81732      163.28211     -30.371192     -19.17654      -1628.5392      31.50853       176.07004    
    747000   299.75638      0.89351467     0.69286533     1.58638        191.41558      106.98561      182.89149      71.205677      273.21665     -131.38756     -1632.5771     -43.416351     -28.542352    
    748000   300.57751      0.8959623      0.69242332     1.5883856      191.39103      107.03731      182.91252      38.989743     -1.5793371      197.31205     -1827.7531     -19.914671      62.369156    
    749000   299.78203      0.89359112     0.69210045     1.5856916      191.44649      107.00046      182.80099     -461.24282     -370.17009     -9.3347991     -1879.9893     -17.018919      95.324987    
    750000   300.74067      0.89644865     0.6905396      1.5869883      191.52308      106.97212      182.69559     -198.20143     -30.175981     -199.21873     -1784.2089      1.5028798      141.66611    
    751000   299.5443       0.89288251     0.69082978     1.5837123      191.30646      107.0512       182.79468     -319.98748     -217.67568     -39.576724     -1803.6005      62.230167      170.16403    
    752000   300.49021      0.89570208     0.69286378     1.5885659      191.43066      107.02073      182.76852     -102.17986     -149.75749     -125.67125     -1669.5078     -3.862753       137.84495    
    753000   300.43132      0.89552654     0.68873624     1.5842628      191.39151      106.9445       182.67894     -12.31302      -565.37061      175.59233     -1550.5481      106.601        131.72293    
    754000   299.74702      0.89348678     0.69075168     1.5842385      191.30096      106.99503      182.81832     -51.743235      359.44581     -269.02189     -1790.1005      48.092679      89.255608    
    755000   300.11116      0.8945722      0.6925364      1.5871086      191.39824      106.99419      182.81732     -139.14939      4.5057201     -0.63024545    -1558.8715      66.917555      15.364331    
    756000   300.30779      0.89515831     0.69000003     1.5851583      191.40749      106.98737      182.78033      31.110894      98.076895     -100.08185     -1698.6208      42.598706      5.7465598    
    757000   299.29597      0.89214227     0.69207886     1.5842211      191.46116      106.98037      182.74783      100.86338      86.943194     -2.6696027     -1775.8554     -7.6578285      109.25602    
    758000   299.92321      0.89401197     0.69250258     1.5865145      191.39747      107.00866      182.86495     -123.50646      51.010254      55.178183     -1732.0572      181.78585      35.065325    
    759000   300.75208      0.89648267     0.69091625     1.5873989      191.36129      107.04688      182.86665      191.03054      359.25416      53.009273     -1508.8027     -92.803917     -0.83612273   
    760000   299.70998      0.89337636     0.69230754     1.5856839      191.44882      106.98785      182.6797      -208.25383      9.650458      -76.595791     -1598.3112     -68.754728      91.033939    
    761000   299.2619       0.89204073     0.6906259      1.5826666      191.50615      106.94459      182.74499     -353.5775      -277.59581      100.46525     -1762.2359     -162.12036      49.298569    
    762000   300.04787      0.89438355     0.68930402     1.5836876      191.3845       106.94562      182.79076      43.614431      176.17732      185.53569     -1780.944      -4.8827911     -109.19282    
    763000   299.40788      0.89247588     0.69208273     1.5845586      191.39092      107.0283       182.66616     -178.04675     -455.47376      122.8792      -1765.7794      47.343945      124.03802    
    764000   299.37189      0.89236858     0.69048036     1.5828489      191.491        106.97725      182.82244      68.28833       126.37594     -33.802654     -1622.498      -92.264772      97.845958    
    765000   300.12108      0.89460179     0.69241377     1.5870156      191.33843      107.01127      182.80368      340.59176      62.407535      0.60432762    -1659.9667      100.47015     -104.36155    
    766000   299.7958       0.89363217     0.69117075     1.5848029      191.43844      107.02132      182.81812      185.44395     -198.96469      22.004538     -1660.9646      44.367944     -40.90835     
    767000   300.02226      0.89430721     0.69331998     1.5876272      191.51797      106.9637       182.80308      108.04123     -158.88337     -60.826484     -1921.8527     -70.665862      204.46411    
    768000   300.05226      0.89439663     0.69181448     1.5862111      191.39314      107.04103      182.86018     -234.81992      35.559668     -253.08304     -1763.1659     -5.2825391      77.214322    
    769000   300.29493      0.89511999     0.69189381     1.5870138      191.37176      107.02516      182.79332      184.01265      208.98989      28.339169     -1946.9314      67.590957      132.06762    
    770000   299.77429      0.89356808     0.69149538     1.5850635      191.43327      106.95056      182.78818      151.78337      35.948085      207.59224     -1930.5721     -49.03527       62.963612    
    771000   300.28927      0.89510313     0.69224227     1.5873454      191.51949      106.97754      182.71932     -354.70779     -37.295722     -89.355165     -1764.7461     -85.917552      45.139066    
    772000   300.69         0.8962976      0.69306167     1.5893593      191.40015      106.99451      182.77289      75.599068     -49.241706     -129.68413     -1971.7628     -21.858002      96.270208    
    773000   300.32538      0.89521077     0.69131076     1.5865215      191.45511      106.95261      182.74199      128.62726      16.685481     -181.24501     -2018.7965      160.79244      131.29909    
    774000   300.26306      0.89502498     0.69415156     1.5891765      191.38071      107.04866      182.89887      333.44233      315.7093      -3.3886277     -1921.8164     -92.892711      152.98974    
    775000   299.17639      0.89178584     0.69221944     1.5840053      191.61602      106.92645      182.77492      151.95895     -210.32501     -30.890629     -1883.0051     -101.78064      116.82186    
    776000   300.21008      0.89486706     0.69251115     1.5873782      191.52279      106.97603      182.75504      161.00755      61.712239      59.767266     -1784.8238      93.039261      143.45024    
    777000   299.3367       0.8922637      0.69111035     1.583374       191.43819      106.99574      182.83429     -39.058535     -110.19188     -157.6562      -1910.9742      34.403109      104.41091    
    778000   300.18428      0.89479016     0.69152043     1.5863106      191.50499      106.95348      182.83261     -235.41999     -51.627757     -195.01283     -1980.4813     -57.176299      30.578472    
    779000   300.97562      0.89714898     0.69147881     1.5886278      191.52168      107.03296      182.83225     -45.209359     -158.74509      118.72555     -2037.3836     -25.982183      195.1303     
    780000   300.14484      0.89467259     0.69186617     1.5865388      191.62253      106.95791      182.79587      251.82322      123.07653     -103.22897     -1688.6536     -3.1992192      17.337602    
    781000   300.37281      0.89535215     0.69162655     1.5869787      191.57554      106.94768      182.75606      8.6097676      366.89495      132.33729     -1814.8694      87.346381     -53.518035    
    782000   299.60183      0.89305399     0.69008712     1.5831411      191.50073      106.94735      182.79017      13.212221      327.30176      236.13458     -1860.5143      20.012949      58.599453    
    783000   300.70325      0.89633711     0.69204999     1.5883871      191.60152      106.94442      182.79883      180.16711      123.67585      50.762033     -1699.417      -42.419656      75.950291    
    784000   299.99138      0.89421515     0.69046987     1.584685       191.57895      106.85767      182.86145     -88.782896     -58.209025      63.36234      -1888.3084     -57.9319        152.08419    
    785000   300.39598      0.89542119     0.69308505     1.5885062      191.54305      106.92892      182.82642      190.99184      13.643644     -81.948937     -1830.9599      38.265875      71.174836    
    786000   300.05756      0.89441243     0.69329388     1.5877063      191.55021      106.96179      182.8518      -82.221469     -344.95478      211.07632     -1935.8921     -96.354293      143.57492    
    787000   299.61867      0.8931042      0.69191925     1.5850235      191.4565       106.96251      182.82286      35.001807      262.55728      151.32087     -2043.1934      19.45613       82.156308    
    788000   299.41275      0.89249039     0.69150096     1.5839913      191.47335      106.96249      182.85474     -216.83777      238.63116     -49.44418      -1716.7179     -62.182868      86.83837     
    789000   300.04086      0.89436266     0.69346522     1.5878279      191.53486      106.95246      182.83045      156.10732     -360.49128     -134.20271     -1813.4215     -54.829099      214.8194     
    790000   300.3255       0.89521111     0.69135929     1.5865704      191.55067      106.91461      182.85461      154.67967     -109.12341      2.5522107     -1722.7294     -151.19599      62.441754    
    791000   299.79825      0.89363948     0.68978928     1.5834288      191.65703      106.86778      182.80387      196.85144      85.68787      -106.6958      -1853.7541     -6.5449556      94.093197    
    792000   299.72831      0.89343099     0.69201717     1.5854482      191.53026      106.89302      182.93757      144.43938      164.62092     -48.565969     -1822.3367      80.703992      177.68859    
    793000   300.27782      0.895069       0.69215421     1.5872232      191.55241      106.94555      182.84719     -217.03724     -361.99143     -67.386111     -1948.0182      73.090231      107.65319    
    794000   300.36485      0.8953284      0.69092333     1.5862517      191.57899      106.92318      182.75249     -5.2350801      358.12483      167.86763     -1802.4575     -126.20301      10.961617    
    795000   299.99809      0.89423518     0.69273993     1.5869751      191.6112       106.87648      182.78916      3.6961153      42.347809      156.91419     -1798.1651     -133.52198      128.21651    
    796000   300.43411      0.89553485     0.69322069     1.5887555      191.51076      106.9065       182.95539      521.70141      527.915       -93.911372     -1867.837       67.170622      139.62162    
    797000   299.53021      0.8928405      0.69327001     1.5861105      191.63853      106.88367      182.9786       154.2798       254.69084     -198.83123     -1919.3949      99.10378       78.005956    
    798000   299.73689      0.89345658     0.69189275     1.5853493      191.55361      106.87343      182.87846      29.599857      209.31377      96.108319     -1725.9593      78.511826      81.815354    
    799000   299.52825      0.89283468     0.69209471     1.5849294      191.55264      106.86618      182.84125      90.730339     -73.098893     -111.42277     -1866.6748     -57.221903      93.548856    
    800000   299.97061      0.89415326     0.69147013     1.5856234      191.56269      106.87311      182.91149     -177.0256       237.16446     -133.18992     -1843.411      -45.174705     -27.429461    
    801000   300.38628      0.89539228     0.69210669     1.587499       191.52297      106.89112      182.92554     -272.4703      -148.65197      78.305034     -2093.7757     -75.30779       31.54764     
    802000   300.0953       0.89452492     0.69148528     1.5860102      191.58964      106.86952      182.92973      21.183041      170.40291     -41.938398     -1858.2183      129.10424     -34.668418    
    803000   299.8098       0.89367391     0.69128881     1.5849627      191.59379      106.8657       182.81643     -57.523481      40.577747      155.78751     -1801.9242     -27.662306      194.43154    
    804000   299.77598      0.8935731      0.69034683     1.5839199      191.53681      106.87998      182.84058     -310.9674      -130.7243       37.048271     -1946.838      -51.444076     -19.342838    
    805000   299.89213      0.89391933     0.68912482     1.5830441      191.56912      106.80046      182.9371       391.39584      196.13445      132.70504     -1903.3902     -42.185164      130.45113    
    806000   299.52731      0.89283186     0.69130921     1.5841411      191.42265      106.8869       182.88329     -27.963971      100.00442     -203.06693     -1769.2861     -125.07737      251.82946    
    807000   299.90799      0.89396659     0.69095595     1.5849225      191.63492      106.82695      182.86302     -45.857174      281.60337     -113.63618     -1660.1167      86.575411     -5.9505407    
    808000   300.91202      0.8969594      0.69022236     1.5871818      191.55163      106.85269      182.96636      102.0893      -57.760793     -1.0630509     -1951.5564      67.894514      115.22579    
    809000   300.36104      0.89531705     0.69316345     1.5884805      191.51638      106.87095      182.97794      138.33138      220.27166     -68.220711     -1998.4942     -87.744628      32.937085    
    810000   299.94087      0.8940646      0.69205534     1.5861199      191.45792      106.92206      182.99044     -100.15981      308.24885     -449.07085     -1876.809      -23.76347       124.31667    
    811000   300.27825      0.89507026     0.69163104     1.5867013      191.54448      106.86533      182.77304     -42.73545       372.87587      258.85063     -1929.2725      132.25902      53.124272    
    812000   299.71386      0.89338793     0.69226441     1.5856523      191.52118      106.87719      182.88659     -154.41078      443.72084      4.0004555     -1937.3623     -124.16451      77.740894    
    813000   299.80592      0.89366235     0.69509077     1.5887531      191.52749      106.86734      183.05342     -251.41439     -215.5968       104.56185     -1937.6972     -148.14757      79.129919    
    814000   300.46269      0.89562005     0.69216429     1.5877843      191.41412      106.90758      182.81634      22.984438     -7.6841147     -143.46327     -2046.8786     -22.375375     -71.960472    
    815000   300.49218      0.89570796     0.69029169     1.5859997      191.54529      106.86204      182.82377     -99.261558     -59.716429     -126.59169     -1805.2973     -139.98572      68.612726    
    816000   299.90861      0.89396843     0.69246564     1.5864341      191.54293      106.87812      182.92527     -19.443901      305.77835     -26.372529     -1841.7495     -68.410598      73.440289    
    817000   300.16444      0.89473104     0.69032475     1.5850558      191.63733      106.88707      182.96366     -117.3176       120.73979     -75.491829     -2013.8967     -56.865211      24.408466    
    818000   299.98092      0.89418399     0.691323       1.585507       191.64258      106.89829      182.99329      101.23679      19.828356     -55.584182     -1969.8856     -22.97141       138.0205     
    819000   299.51515      0.89279562     0.69240155     1.5851972      191.64696      106.90318      182.90493     -41.706242     -194.87974      118.00016     -2000.3953      112.40139      169.72795    
    820000   299.92997      0.8940321      0.69312035     1.5871525      191.57882      106.97718      182.88822     -209.46241     -185.75352      111.1825      -2006.2183     -58.404039      20.86538     
    821000   299.91083      0.89397506     0.69247276     1.5864478      191.63846      106.91216      182.87998      205.46037      228.43913      92.659277     -1954.3637      14.812628     -7.3980894    
    822000   299.91071      0.8939747      0.69362449     1.5875992      191.57366      106.88218      182.99996     -225.05726     -192.09979     -157.59908     -2046.2729     -12.411971      83.849028    
    823000   300.16114      0.89472117     0.69173274     1.5864539      191.77636      106.8498       182.91144      25.146936      173.50297     -92.130071     -2029.3422      35.54175       67.938513    
    824000   300.51539      0.89577713     0.69204991     1.587827       191.70173      106.84975      183.01631     -124.443       -156.52047     -14.413614     -1963.2453      112.48649     -23.718432    
    825000   300.1055       0.89455532     0.69316236     1.5877177      191.66942      106.87688      182.91465     -122.21955      213.42382      123.72786     -1888.0488     -68.428468     -0.86057052   
    826000   299.74462      0.89347961     0.69309396     1.5865736      191.67384      106.87433      182.86485     -3.4368078      266.09907     -106.80866     -2044.4005      126.58744      118.84261    
    827000   299.94462      0.89407579     0.69311001     1.5871858      191.81087      106.93579      182.8935      -77.945594     -83.478558      50.950014     -2160.0299     -34.30016      -2.9432565    
    828000   300.28233      0.89508243     0.69506916     1.5901516      191.74929      106.91718      182.99373      36.002114     -461.42705     -212.71411     -1974.5836      125.7953       99.842852    
    829000   299.69667      0.89333671     0.69398916     1.5873259      191.84646      106.8853       182.88672     -10.930349     -54.340198     -97.042835     -2160.5638      106.19911      97.045533    
    830000   299.78203      0.89359114     0.69483448     1.5884256      191.83688      106.95063      182.97902      30.566046     -70.916895     -50.48898      -2101.0762      111.8696       48.450144    
    831000   300.38435      0.89538654     0.69312801     1.5885145      191.77625      106.9502       182.97476     -60.024023     -5.2533527     -95.409872     -1876.2173      146.8391       122.05165    
    832000   300.10201      0.89454494     0.6942841      1.588829       191.71465      106.89149      182.8966       293.6048      -38.417198     -93.687412     -2104.9936      49.54696       113.58695    
    833000   300.37541      0.89535989     0.69410542     1.5894653      191.84415      106.83829      182.82021     -201.56119     -12.37631       258.17093     -2012.4076     -20.841764      33.149649    
    834000   300.44405      0.89556449     0.69343715     1.5890016      191.75827      106.85494      182.9783      -59.688832      5.5348748      80.409823     -2409.3491     -28.264103      130.33649    
    835000   300.04951      0.89438843     0.69379876     1.5881872      192.01584      106.86273      182.85678     -108.9403      -294.32816      49.655395     -2094.0925     -85.858217      93.80038     
    836000   300.19199      0.89481314     0.69426839     1.5890815      191.96689      106.8633       182.98567     -30.507981      263.65779      146.38505     -1855.5936      12.199582      149.39827    
    837000   299.44485      0.89258607     0.69204037     1.5846264      191.81265      106.87405      182.90659      342.34279      148.32357     -74.65647      -2085.9499     -2.4568697      63.666382    
    838000   300.07373      0.89446065     0.69537296     1.5898336      192.02397      106.86793      182.93835     -303.95161     -345.85166     -30.486741     -2061.1098     -43.801036      91.633987    
    839000   299.55199      0.89290542     0.69634473     1.5892501      191.87389      106.92418      182.87702     -76.183841      196.7293      -54.520675     -2077.6513      53.6111        131.75418    
    840000   300.34031      0.89525527     0.69384916     1.5891044      191.90643      106.91791      182.98405      267.79476     -59.806083     -15.121219     -1995.3519     -73.59427       101.92695    
    841000   299.962        0.89412758     0.69410329     1.5882309      191.9344       106.89138      182.91706      104.17053     -213.86554     -144.77116     -2177.555       26.7957       -16.500984    
    842000   299.89134      0.89391697     0.69545428     1.5893713      191.88833      106.89845      182.9505      -75.209727     -295.42555     -102.68067     -2000.1462      38.131497      71.30287     
    843000   300.44704      0.89557339     0.69585733     1.5914307      191.98276      106.85608      182.90931     -333.10197     -138.80895     -11.188072     -2216.5567     -3.1371768     -41.83896     
    844000   300.07461      0.89446326     0.69383738     1.5883006      192.02566      106.85367      182.8601      -198.64813     -27.898832      154.6442      -2229.5698      61.48837       167.56406    
    845000   300.83377      0.89672616     0.69451108     1.5912372      191.94161      106.90669      182.99834     -50.071142      117.87913      111.88132     -2154.8969     -161.98234      19.782518    
    846000   300.49319      0.89571097     0.69483171     1.5905427      192.07713      106.88786      182.96056      51.753357     -262.97723      73.436924     -1735.7643     -123.30394     -8.9786382    
    847000   299.84505      0.89377897     0.69256149     1.5863405      192.02581      106.86419      182.92249      85.77071      -12.569037     -181.65284     -2262.6225      203.03014     -92.39678     
    848000   299.84953      0.89379233     0.69603463     1.589827       192.03687      106.85175      183.02102      157.99234      217.51812     -68.238033     -2072.3321      48.740816      132.76944    
    849000   299.93791      0.89405578     0.69399994     1.5880557      192.04446      106.8386       182.98998     -150.96418     -129.13844     -271.64815     -2019.3902     -104.90765     -40.918773    
    850000   300.69655      0.89631713     0.69521526     1.5915324      192.24461      106.83932      182.92753     -93.994379     -390.66692      46.842678     -1861.1791      38.336808      134.25769    
    851000   300.13324      0.89463801     0.69696442     1.5916024      192.18948      106.85282      182.99927     -109.09359     -183.82165     -253.59462     -2047.6238      8.6227353      78.878047    
    852000   299.95582      0.89410916     0.69728034     1.5913895      192.22522      106.82599      183.06238     -57.109214     -117.8914      -169.33246     -2221.1682      1.6866559     -39.680816    
    853000   300.02414      0.89431282     0.69352203     1.5878349      192.10155      106.8681       182.83882      83.296046      226.11244      2.2150536     -2026.573      -37.545247      74.501446    
    854000   299.81041      0.89367573     0.69593846     1.5896142      191.96079      106.81322      183.04871      195.04774      237.57322      1.0372563     -2225.7994      38.118756      106.63537    
    855000   299.76278      0.89353377     0.69491267     1.5884464      192.05896      106.8603       182.98587     -85.576522     -164.29588     -73.884776     -2122.081      -84.628699     -71.168275    
    856000   300.68186      0.89627335     0.69531925     1.5915926      192.1614       106.84874      182.87127      48.828776     -114.68979      54.96257      -1945.2239     -1.5787135      304.20361    
    857000   300.11386      0.89458025     0.69434613     1.5889264      192.18737      106.81214      183.00688     -523.76758     -350.19329     -49.049154     -2051.8587     -60.183151      76.928979    
    858000   299.12908      0.89164482     0.69560307     1.5872479      192.16506      106.84367      183.04474      19.009049      432.33514     -77.465964     -1994.6317      76.339532      113.26804    
    859000   299.79268      0.89362288     0.69578883     1.5894117      192.16925      106.7975       182.95979     -186.26088     -284.69101     -168.54307     -2149.2443      59.950496      75.476542    
    860000   300.38773      0.89539659     0.69571198     1.5911086      192.18919      106.82403      182.92871     -373.61653     -257.2548      -20.738849     -2045.8836     -27.847924      51.429333    
    861000   300.69075      0.89629986     0.69629474     1.5925946      192.16232      106.8004       183.05514      139.23359     -12.620597      232.57159     -2251.882       22.012258      104.65541    
    862000   300.39243      0.89541062     0.69631162     1.5917222      192.17948      106.80499      182.95751      331.74259      261.35672      83.500614     -2127.3846      155.58063     -20.695726    
    863000   299.38838      0.89241773     0.69680694     1.5892247      192.17786      106.81824      183.02777      335.60196      424.51737     -40.788305     -1988.9392      40.308038      7.8317648    
    864000   299.97751      0.89417383     0.69556466     1.5897385      192.27171      106.83448      183.01835     -61.663335      383.62731      42.883778     -2133.5073     -74.844677      99.949351    
    865000   299.75492      0.89351032     0.70037656     1.5938869      192.26221      106.8418       183.04287      70.70036       93.507067      256.08725     -2208.7139      61.564327      45.646972    
    866000   299.82843      0.89372944     0.69567943     1.5894089      192.28617      106.83376      182.98225      198.53097     -257.38887     -148.76018     -2106.8193     -83.875165      79.252492    
    867000   299.38048      0.89239418     0.69527595     1.5876701      192.25673      106.81341      183.00079     -354.41231      55.195662      174.93829     -2310.732      -6.2238252      77.541001    
    868000   300.19441      0.89482037     0.69670013     1.5915205      192.19867      106.82425      182.9906      -28.252371      163.56271      95.189278     -2113.4114      60.092097      68.076259    
    869000   299.74045      0.8934672      0.69489699     1.5883642      192.21451      106.86166      183.01166      213.69662     -225.12677      113.25652     -2258.1515      5.6999062     -14.278311    
    870000   299.93349      0.89404262     0.69638831     1.5904309      192.27531      106.8761       183.04216      140.60208     -324.32455     -124.28392     -2048.6582     -5.4101386      90.177654    
    871000   300.09604      0.89452714     0.69446852     1.5889957      192.36961      106.80415      183.04124     -8.2013971      59.245755      118.61614     -2131.7659      71.258069      122.30437    
    872000   299.82039      0.89370547     0.69419546     1.5879009      192.27456      106.83461      182.90225     -309.53905     -89.167594      79.232071     -2087.0313     -51.85494       93.306324    
    873000   299.82477      0.89371852     0.69629747     1.590016       192.1968       106.79027      182.96562     -127.22775     -56.663131      104.944       -2214.6193      56.615191     -1.5323717    
    874000   299.51398      0.89279212     0.69385575     1.5866479      192.2545       106.76472      183.0035      -109.71434      408.45393      88.236357     -2112.3939      97.035532      113.79481    
    875000   299.96898      0.8941484      0.69734447     1.5914929      192.48551      106.77118      183.04301     -188.14889     -169.69165      206.87097     -2159.0079     -58.688716      96.424786    
    876000   299.82604      0.89372233     0.69399239     1.5877147      192.44188      106.7773       183.02722     -215.4394       3.2676841     -163.48719     -2252.2097     -43.944471      132.06214    
    877000   300.13828      0.89465303     0.69650017     1.5911532      192.25192      106.84001      183.04137      147.51735      61.447428      135.25439     -1903.6463     -14.202924      81.708311    
    878000   300.06462      0.89443348     0.69373772     1.5881712      192.25802      106.82135      182.91357     -60.751603     -259.88762     -46.213094     -2239.3869     -61.550433     -31.457145    
    879000   299.84499      0.8937788      0.69537167     1.5891505      192.40768      106.7777       182.97091     -400.6484      -301.73907     -96.393502     -2066.8734      85.87735      -39.533448    
    880000   299.91691      0.89399319     0.69674349     1.5907367      192.35619      106.81798      183.00598      99.609492      388.37184      35.583767     -2045.8492     -24.229302      101.6258     
    881000   300.3199       0.89519441     0.69727808     1.5924725      192.45163      106.79891      183.09271     -286.59106     -101.69041     -233.37747     -2111.3342      39.680227      162.00474    
    882000   300.27996      0.89507537     0.69651545     1.5915908      192.45932      106.81061      182.94466     -91.811829     -232.51593     -35.946505     -1938.301       53.199495     -68.139041    
    883000   299.57865      0.8929849      0.69552177     1.5885067      192.49849      106.80101      182.90388     -100.48387      222.11565      182.55718     -2076.9957      1.7521653      135.82268    
    884000   300.16581      0.89473512     0.69691581     1.5916509      192.41961      106.81198      183.01786      227.89127      165.59119     -105.57939     -2295.8806     -36.091312      139.87401    
    885000   300.38702      0.89539449     0.69689639     1.5922909      192.49836      106.74852      183.02966      68.109755      217.2165      -4.3736309     -2214.0007      18.634157      92.050671    
    886000   299.95505      0.89410687     0.69628811     1.590395       192.48843      106.79936      182.97556      223.25378      43.230153      13.487831     -2300.2904      230.48982      106.81072    
    887000   300.04595      0.89437783     0.69682876     1.5912066      192.48771      106.80166      183.05941     -315.36123      207.45166     -262.03956     -2213.8945     -18.147236      87.615653    
    888000   300.43779      0.89554582     0.69502496     1.5905708      192.53488      106.7621       183.07218      29.331886      349.98292      143.81966     -2213.0807     -24.780166      178.63033    
    889000   300.27914      0.89507293     0.6981472      1.5932201      192.47956      106.80625      183.07432      155.87633      162.11439     -183.87374     -2219.7983      161.10445      200.02449    
    890000   299.5826       0.89299666     0.69495464     1.5879513      192.56316      106.76611      182.9243      -76.535383     -38.53922       93.22355      -2137.4031      75.285328      52.920358    
    891000   300.05977      0.89441903     0.69897864     1.5933977      192.41488      106.81222      183.07121      267.54644     -20.358663      26.306244     -2176.165      -124.66628      94.183431    
    892000   300.3298       0.89522393     0.69722263     1.5924466      192.56867      106.79209      183.05556      106.78713      312.90919      54.131835     -2074.5583      98.054771      12.069303    
    893000   299.89319      0.89392249     0.6974128      1.5913353      192.58153      106.82922      183.05113      349.6973       116.89153      26.010635     -2418.2586     -32.80601       20.50329     
    894000   300.54175      0.89585571     0.69775433     1.59361        192.52998      106.81664      183.15947     -384.50199      17.587269     -82.190889     -2056.901       65.679402      105.82233    
    895000   300.52401      0.89580282     0.69799143     1.5937942      192.63936      106.78151      183.11398      288.39488      16.052349      101.18109     -2409.5954     -58.658146      97.448765    
    896000   299.91706      0.89399363     0.69821457     1.5922082      192.6409       106.78097      183.14521     -258.54701      62.254034     -203.77631     -2007.5201      62.763453     -0.6473208    
    897000   300.63103      0.89612183     0.69670676     1.5928286      192.6267       106.75623      183.12121     -266.77421     -145.84192     -15.901978     -1974.9545      38.222819      253.46433    
    898000   299.9648       0.89413593     0.69999285     1.5941288      192.56526      106.74422      183.06045      256.98508      321.34586      101.42164     -1994.7717      75.068835      59.127017    
    899000   299.90769      0.89396569     0.69758127     1.591547       192.4399       106.78189      183.24012     -96.325587     -192.56649     -199.81185     -1759.1221      65.097881      88.180034    
    900000   299.48342      0.89270105     0.6974329      1.5901339      192.59839      106.78276      183.20587      238.80014      82.25002       111.39433     -2152.8986      77.163695      54.253868    
    901000   300.11411      0.894581       0.70066879     1.5952498      192.71084      106.72655      183.14796     -12.878594      26.22158      -22.054392     -2045.9226     -124.00969      74.134423    
    902000   300.32519      0.89521019     0.70031376     1.595524       192.56322      106.7704       183.19796      134.25057      69.979874      32.333689     -2136.164       51.015892     -5.6470884    
    903000   299.77512      0.89357053     0.69737641     1.5909469      192.72272      106.76704      183.01587     -52.27877      -291.25789      6.6594423     -2130.634       18.465189      114.38014    
    904000   300.16428      0.89473054     0.69919776     1.5939283      192.75418      106.7472       183.0758      -231.72903      198.49107     -179.46558     -2344.7265      14.573226      20.031385    
    905000   300.16002      0.89471784     0.69817978     1.5928976      192.62771      106.72481      183.15135      28.684378     -246.59732     -88.214682     -2163.7298     -52.112805      217.91439    
    906000   300.18204      0.89478349     0.697976       1.5927595      192.54815      106.8212       183.02618      123.67658     -56.566148      90.778241     -2376.5633     -44.272928      135.79515    
    907000   299.66627      0.89324607     0.69712783     1.5903739      192.62928      106.72977      183.15393     -387.55204      117.41387     -156.44061     -2148.022       10.189466      120.93396    
    908000   299.88069      0.89388521     0.69839934     1.5922846      192.71122      106.71705      183.07399      154.64123      322.76071      42.719042     -2103.0668      99.260541      3.4166313    
    909000   299.61728      0.89310004     0.69536537     1.5884654      192.59242      106.78751      183.06568      58.799873     -467.65897      73.903779     -2214.6021      82.461795      134.10214    
    910000   299.23445      0.89195891     0.6972509      1.5892098      192.74471      106.7495       183.08671     -69.372477     -59.616305      32.871868     -2142.1249      112.1429       133.55123    
    911000   300.67508      0.89625315     0.69727635     1.5935295      192.70039      106.78695      182.99747     -41.563318     -41.125502      161.24018     -2341.6996      49.273704      107.8441     
    912000   300.02126      0.89430423     0.6993766      1.5936808      192.83122      106.72307      183.10993     -52.211979     -363.31705     -78.272387     -2284.3658      119.9014       129.00107    
    913000   299.79905      0.89364188     0.69903905     1.5926809      192.81646      106.73308      183.22115     -29.807283      252.23954     -0.89876236    -2213.1401      227.68912      135.91012    
    914000   300.60514      0.89604467     0.69913412     1.5951788      192.81422      106.68382      183.14837     -26.1587       -11.796306     -255.3106      -2373.0547     -58.278482      28.677221    
    915000   300.49943      0.89572955     0.69923244     1.594962       192.8648       106.75083      183.17689     -40.115905     -73.30345       17.759671     -2232.1906      70.860628      48.708649    
    916000   299.84012      0.89376428     0.70144827     1.5952125      192.86725      106.70837      183.10537      72.157551      214.50556      83.276097     -2090.582       71.439399     -28.083547    
    917000   300.02338      0.89431055     0.6996042      1.5939147      192.88935      106.76387      183.14528     -256.63247     -232.75072     -20.686152     -2371.0565      85.138995      11.550819    
    918000   299.06035      0.89143996     0.69900678     1.5904467      193.06693      106.7169       183.09171     -98.198572      211.84545      143.00874     -1939.153       9.524315       94.33194     
    919000   300.48202      0.89567768     0.69989734     1.595575       192.95752      106.74787      183.07864      70.516827     -187.46806      143.73044     -2321.5848      12.530679     -9.3555877    
    920000   299.54792      0.89289331     0.70008258     1.5929759      192.89133      106.77474      183.12272      33.549416     -43.587234      65.91809      -2328.9913      43.742351      70.279281    
    921000   300.15557      0.89470458     0.69841685     1.5931214      192.93363      106.72995      183.14823     -237.18341     -32.025497      11.395724     -2133.0351     -113.15252      50.125171    
    922000   300.8634       0.8968145      0.69857662     1.5953911      193.05644      106.67562      183.0841       22.149668     -287.29402     -20.289407     -2093.8874      26.974442      127.02349    
    923000   299.67443      0.8932704      0.69838114     1.5916515      192.99457      106.67897      183.14944     -200.22139      154.38805      20.83612      -2023.0691     -106.30963     -33.620676    
    924000   299.95113      0.89409518     0.6979129      1.5920081      192.85428      106.71588      183.20576     -217.27746     -216.35258     -178.67061     -2353.1106     -71.885046      40.693271    
    925000   299.67114      0.89326059     0.70093401     1.5941946      192.98716      106.67625      183.26038      276.25225      130.16792     -100.28682     -1959.6872      3.1875622      6.7181762    
    926000   299.33879      0.89226992     0.69814669     1.5904166      192.94443      106.6856       183.16116      79.881923      79.195062      35.760001     -1925.0877     -6.6131825      109.66516    
    927000   299.61362      0.89308913     0.69680668     1.5898958      192.9795       106.6614       183.11979      11.668967     -100.69485     -154.68159     -1957.9069      97.954082      86.608612    
    928000   299.66206      0.89323353     0.6986327      1.5918662      192.94847      106.72293      183.24398      22.448919     -142.67919      64.441881     -2313.3634      71.714137      77.889333    
    929000   299.94743      0.89408416     0.69944932     1.5935335      192.97662      106.71564      183.2024      -112.04151     -111.69656     -153.41559     -2210.3082      74.08486       87.787064    
    930000   299.92734      0.89402427     0.69901559     1.5930399      192.96045      106.6972       183.12911     -139.33516      64.579003     -69.225879     -2104.7284     -20.966879      100.58963    
    931000   299.88814      0.89390741     0.7002202      1.5941276      193.04052      106.69864      183.16622      287.4964      -6.633109       93.187316     -2017.1934      76.81834       168.18857    
    932000   299.90003      0.89394288     0.7024439      1.5963868      193.1644       106.67656      183.13151     -34.698061     -10.397663      13.604753     -2072.9597     -3.9487533     -60.955644    
    933000   299.8665       0.89384291     0.70002094     1.5938639      193.10925      106.65298      183.12676      261.31798     -197.50302     -141.62448     -1963.8018      1.7176581      98.935142    
    934000   299.40343      0.8924626      0.69771978     1.5901824      193.01207      106.63539      183.19605      181.18949     -75.237717      216.30767     -2001.8928      146.38032      115.25891    
    935000   299.83457      0.89374773     0.69810579     1.5918535      193.12895      106.68091      183.18258     -18.045386     -270.57474     -121.79037     -1899.5108     -18.320826      28.634349    
    936000   300.40278      0.89544145     0.69933274     1.5947742      192.95936      106.70201      183.20435      105.74241      29.354679      131.19552     -2239.6105      182.89773      173.47141    
    937000   299.74776      0.89348898     0.69826684     1.5917558      192.93578      106.66839      183.1269      -119.83182      4.2946311      46.570622     -2246.017       50.432208      11.387891    
    938000   300.20597      0.89485481     0.6990685      1.5939233      193.12203      106.68765      183.08022      79.147983      70.574323      193.31871     -1908.0463      96.601691      2.4861911    
    939000   299.73702      0.89345698     0.69821784     1.5916748      193.00254      106.66996      183.19434      51.819276     -220.37182      59.840452     -2246.4824      28.254239      23.016478    
    940000   299.84188      0.89376955     0.69729976     1.5910693      193.05794      106.62014      183.23521     -31.156537      156.37207      149.87316     -2047.7599      4.1363453      127.16817    
    941000   300.30946      0.89516329     0.69875483     1.5939181      193.02789      106.62561      183.23803     -45.031262      55.149692     -113.24221     -2016.3097      90.816965      88.362971    
    942000   299.74086      0.89346842     0.69886293     1.5923313      193.04976      106.66055      183.26731      64.609184      91.947759     -251.41274     -1975.2327      80.754243      204.9805     
    943000   299.54405      0.89288176     0.69950095     1.5923827      192.94725      106.65004      183.2917       58.726966      91.765312     -6.4424542     -1851.567       6.6444001     -81.91095     
    944000   299.98867      0.89420709     0.70008342     1.5942905      193.09687      106.61284      183.22771     -279.53825     -129.90953     -23.469637     -2241.4155      25.002977      129.02058    
    945000   300.61126      0.89606291     0.70058435     1.5966473      193.02169      106.64508      183.14741      118.50193     -68.656297      139.86919     -2233.6655      88.361262      200.41626    
    946000   300.12744      0.89462073     0.69963416     1.5942549      193.01464      106.64789      183.25051      288.63572     -92.261189     -55.138877     -2079.4278      26.887596      68.387571    
    947000   299.9577       0.89411477     0.69771457     1.5918293      193.09335      106.57075      183.22466      542.27708      81.083293     -20.299241     -1845.996       52.870544      45.607018    
    948000   300.53151      0.89582519     0.70004793     1.5958731      192.94728      106.63405      183.37181      116.95488      189.59819      98.922221     -2133.0491      8.5123266      70.617966    
    949000   299.57269      0.89296713     0.69926123     1.5922284      193.07688      106.61534      183.17413      261.22101      2.2707056      47.550927     -2174.9062     -58.604861      56.890717    
    950000   299.4086       0.89247801     0.69868311     1.5911611      193.10208      106.64119      183.23101      64.125176     -37.778311      191.92013     -2112.5377      73.586859      139.75943    
    951000   299.27779      0.89208808     0.6986803      1.5907684      193.18694      106.62994      183.11898     -155.65771     -111.13198     -223.85764     -2188.2199      5.9362398      119.58486    
    952000   300.40167      0.89543815     0.69770018     1.5931383      193.22623      106.57408      183.07267     -0.13968015    -11.136509     -62.094331     -1865.2866     -63.273001      100.59882    
    953000   299.79167      0.89361986     0.6961963      1.5898162      193.12238      106.55052      183.16053      10.288975     -215.72308     -116.40535     -2114.8314      36.18593       16.484351    
    954000   300.06152      0.89442425     0.69869042     1.5931147      193.19745      106.59096      183.21721      12.60801      -180.22173      120.10758     -1927.5216      103.62931      33.266464    
    955000   299.04951      0.89140762     0.69814642     1.589554       193.15129      106.56918      183.23596      63.581829      97.507192     -12.819644     -1948.343      -18.210993      58.70659     
    956000   300.43366      0.8955335      0.69682377     1.5923573      193.05651      106.60219      183.13195      265.52161     -191.23972      240.32009     -2022.1329      38.840205     -24.190458    
    957000   299.85215      0.89380016     0.70097644     1.5947766      193.12759      106.58171      183.20726      49.240139      144.95781     -179.00261     -2105.9089     -17.360369     -18.498917    
    958000   300.18716      0.89479873     0.69900208     1.5938008      193.14589      106.56669      183.30739     -122.61537     -112.7921       60.380525     -2053.955      -16.142981      124.97572    
    959000   299.90118      0.89394629     0.70013507     1.5940814      193.17999      106.54403      183.2287       13.711221      23.631129     -20.031254     -2047.2427      44.377475      104.37209    
    960000   300.22921      0.89492408     0.69764061     1.5925647      193.21082      106.52284      183.14785      179.05497      86.541243      148.92105     -2242.7911      6.4812842      164.53922    
    961000   300.74615      0.89646497     0.69962845     1.5960934      193.24499      106.54303      183.17294     -207.65154     -144.47285     -4.3990335     -1914.445       32.984387      147.24565    
    962000   300.67543      0.89625419     0.697069       1.5933232      193.08368      106.57586      183.20984     -104.44063      165.66507     -61.546518     -2130.3533      3.5233492      0.85098604   
    963000   299.85228      0.89380053     0.69762734     1.5914279      193.0618       106.59919      183.21667      100.42666      213.53152      102.42201     -1822.5223      3.7667549      79.407553    
    964000   299.52648      0.8928294      0.69833452     1.5911639      193.17185      106.50273      183.21189      47.259387     -9.2379053      20.124674     -1798.4451      98.732252      20.408965    
    965000   299.69117      0.89332028     0.69952829     1.5928486      193.18215      106.56101      183.20724     -470.47043     -199.16589      96.810096     -1842.1267      172.68426     -79.11233     
    966000   300.04582      0.89437745     0.69795043     1.5923279      193.06801      106.52067      183.29316      16.043885      310.2277       106.49084     -1993.7133      42.980101      94.097982    
    967000   300.2723       0.89505252     0.70018257     1.5952351      193.21189      106.50712      183.22972     -89.687317     -187.88439      96.482199     -2017.4151      62.640361     -99.368789    
    968000   299.20631      0.89187502     0.69783858     1.5897136      193.12361      106.57689      183.28656      22.997447     -96.961675     -80.393018     -2004.3754      16.283502     -40.229003    
    969000   299.765        0.89354037     0.69918912     1.5927295      193.09841      106.55861      183.29761     -33.916979     -36.065927      83.086413     -2144.1173     -32.168623     -63.236273    
    970000   299.65689      0.8932181      0.69859723     1.5918153      193.13066      106.51464      183.24007     -176.5267       80.63067       8.7838846     -1788.5063      9.6166309      19.44769     
    971000   299.797        0.89363575     0.69942622     1.593062       193.10912      106.54616      183.25744     -117.68118     -183.14267     -13.895863     -1839.068      -220.17195      120.82815    
    972000   300.42473      0.8955069      0.69626086     1.5917678      193.08819      106.53088      183.16182     -200.25162     -315.77966     -47.484718     -1875.8378      166.10026      131.4704     
    973000   300.28577      0.89509267     0.69815408     1.5932467      193.09403      106.46501      183.31762     -47.674451     -258.73311      87.431934     -2093.6942     -112.60688      11.180666    
    974000   300.16809      0.8947419      0.69789575     1.5926377      193.06129      106.4815       183.3368      -141.32471     -175.42475      67.335428     -1944.5266      102.87572      5.6018028    
    975000   300.28119      0.89507903     0.69932972     1.5944087      193.01022      106.44909      183.3415      -247.37043      76.816184      110.94887     -1949.3919     -45.265844      79.112115    
    976000   300.18294      0.89478618     0.69582719     1.5906134      192.98369      106.46993      183.21049      5.0305227      53.687482      168.85496     -1908.2383     -9.8460511      92.610435    
    977000   300.233        0.89493539     0.69750216     1.5924375      192.95166      106.47015      183.19629     -80.88683      -434.11893     -165.91658     -1845.0018      49.993142      108.95228    
    978000   300.33011      0.89522486     0.69904347     1.5942683      192.9887       106.44358      183.29367     -428.67156      121.01208      13.868038     -1902.3357     -25.214263      41.919765    
    979000   300.29012      0.89510564     0.69814623     1.5932519      193.07731      106.43895      183.36113     -328.66447      245.61175      54.921851     -1846.2771     -116.17189     -9.9844584    
    980000   299.63427      0.89315068     0.69655154     1.5897022      192.95766      106.47372      183.3255      -58.922811     -169.31272      153.35356     -2048.0481     -2.9752344      191.57562    
    981000   299.78177      0.89359035     0.6972154      1.5908058      193.02178      106.52349      183.38988     -405.84586     -427.12873     -139.65316     -1956.7461     -12.338518      106.63439    
    982000   300.24057      0.89495795     0.69830396     1.5932619      192.91455      106.44092      183.33733      42.563525      155.25809     -214.43714     -1922.9191     -51.923908      72.757809    
    983000   300.70127      0.8963312      0.69655307     1.5928843      192.97853      106.45392      183.30458      298.23565     -174.87514     -276.00349     -1606.5233     -81.324082      236.20856    
    984000   300.27984      0.89507502     0.69783937     1.5929144      193.10167      106.45993      183.36153     -215.95575      69.330215     -21.880625     -2041.8653     -164.74007      96.826356    
    985000   300.39806      0.89542741     0.69846323     1.5938906      193.11008      106.41457      183.20816      105.08808     -18.518075     -47.537787     -2060.0381     -31.031532     -3.7051211    
    986000   300.25295      0.89499485     0.69700938     1.5920042      192.99777      106.41647      183.35603     -5.8292174      7.5318178     -126.52005     -1972.2646     -113.97512      135.2126     
    987000   299.65357      0.89320821     0.69778636     1.5909946      192.94379      106.46866      183.24836      359.6788       133.34542      192.85691     -2138.1493     -0.067137805   -21.160277    
    988000   300.49083      0.89570394     0.69524087     1.5909448      193.03142      106.44634      183.14496     -77.810766      84.077987      18.413463     -1933.5671      37.666541     -53.645991    
    989000   299.84119      0.89376747     0.69558128     1.5893488      193.03352      106.42552      183.34131     -24.370588     -57.051283     -16.237527     -1634.3596      51.100448      177.00906    
    990000   300.31571      0.89518192     0.69668633     1.5918683      192.98396      106.51841      183.32248     -237.94547     -191.58366     -108.93539     -1848.6063     -73.405886     -31.084833    
    991000   300.15902      0.89471488     0.69881568     1.5935306      193.20751      106.38025      183.28017      88.391939      46.835316      344.00878     -1605.742      -36.141003      137.49178    
    992000   300.72046      0.89638842     0.6982688      1.5946572      193.16718      106.44423      183.37993      51.913766      165.92241      112.25883     -1858.0157      96.640683      110.19047    
    993000   300.38431      0.8953864      0.6981798      1.5935662      193.00995      106.44602      183.33845     -239.70505      139.92006     -50.927089     -1778.8138      78.511068      163.69859    
    994000   300.52986      0.89582027     0.69794897     1.5937692      192.99883      106.39236      183.17653     -294.52698     -134.4373       50.406568     -1840.175      -1.794357      -47.638351    
    995000   299.7453       0.89348164     0.69541028     1.5888919      192.99473      106.36913      183.27693      59.863869      152.58513     -142.5319      -1787.892      -131.96705      69.805071    
    996000   300.01089      0.89427333     0.69685119     1.5911245      193.04104      106.35784      183.35629     -150.0164       226.99477     -107.44492     -1843.6807     -62.246464      133.66122    
    997000   300.88848      0.89688924     0.69382488     1.5907141      193.01563      106.43175      183.31586      135.14766      10.856692     -16.584314     -1636.958       12.3505        109.33378    
    998000   300.32551      0.89521115     0.6964315      1.5916426      193.15402      106.35589      183.17647     -81.044387      56.037181      0.69671472    -1967.5049      69.408788      117.28537    
    999000   299.87272      0.89386145     0.69879289     1.5926543      193.1607       106.36289      183.36896     -277.38713     -228.51651     -195.51013     -1829.9762      18.257398      167.99603    
   1000000   299.90506      0.89395786     0.6973856      1.5913435      193.11649      106.40622      183.32767     -129.48861     -136.99926      52.892749     -1729.2248      38.603383      84.744168    
   1001000   300.06245      0.89442702     0.6963765      1.5908035      193.07851      106.38349      183.18598     -234.39889     -393.86478      185.70779     -1913.4676      90.908131      0.99207422   
   1002000   299.91491      0.89398722     0.69814366     1.5921309      193.11732      106.39361      183.33964     -329.68315      112.03602     -31.133766     -1872.43        125.41354      157.74841    
   1003000   299.69914      0.89334404     0.69738276     1.5907268      193.1073       106.40392      183.37657     -203.81487      244.23164     -40.358045     -1820.4982     -24.42475      -10.507017    
   1004000   300.41069      0.89546504     0.69417935     1.5896444      193.02722      106.38623      183.36686     -152.2541       178.80308      132.71803     -1945.3161      47.952979     -4.2972661    
   1005000   300.25735      0.89500798     0.6982326      1.5932406      193.24022      106.34566      183.31904     -245.88191      159.98388     -94.369191     -1957.6638      72.296079      91.796215    
   1006000   299.81425      0.89368716     0.69634651     1.5900337      193.21738      106.38048      183.24978      169.2285      -34.23878       41.132085     -1715.946      -121.7952       74.612915    
   1007000   299.72118      0.89340975     0.6991111      1.5925209      193.2469       106.37065      183.29667     -118.79169     -276.74836     -15.68545      -1686.7858     -45.331346      82.980007    
   1008000   299.565        0.8929442      0.69896182     1.591906       193.13853      106.39057      183.33135      154.34934     -189.52325     -7.7643661     -1961.5313     -110.39778      88.892371    
   1009000   299.73108      0.89343926     0.69747762     1.5909169      193.13104      106.31902      183.48032      463.53135      86.156082     -4.4130946     -1904.6753      6.6096561      83.5752      
   1010000   300.21377      0.89487806     0.69456666     1.5894447      193.11334      106.37128      183.24347     -181.08901     -5.605323       117.22091     -1772.4479     -36.089491      78.845621    
   1011000   299.79817      0.89363924     0.69951579     1.593155       193.20632      106.34668      183.27502      184.80936     -0.28414764     53.785297     -1836.7445     -32.485923      63.250183    
   1012000   299.92555      0.89401894     0.69784101     1.59186        193.02886      106.36088      183.35523      26.811588     -113.06595     -153.13217     -1913.5316      0.80661393     100.05017    
   1013000   299.82271      0.89371238     0.69776913     1.5914815      193.16668      106.33323      183.40415      15.079217      153.73569      9.796605      -1795.4363      7.9018345     -2.7615496    
   1014000   299.90014      0.89394319     0.69573872     1.5896819      193.22122      106.32933      183.27603      54.312079      247.58995     -156.11275     -1908.704       10.098631     -3.5544665    
   1015000   300.05977      0.89441902     0.69691829     1.5913373      193.21431      106.35563      183.28731     -137.31553     -181.39789      57.404114     -1714.075      -56.786689     -8.1597761    
   1016000   299.91006      0.89397276     0.6966399      1.5906127      193.34779      106.31187      183.32976      97.681365      227.69841      102.15854     -1731.0568      1.037453       33.935101    
   1017000   300.18661      0.89479712     0.69782604     1.5926232      193.22721      106.32082      183.21521      436.4596       189.14366      0.96044738    -1696.1798     -10.22137       64.521371    
   1018000   299.98118      0.89418475     0.6972606      1.5914453      193.16681      106.32666      183.25444     -89.632924     -141.1897       13.111935     -1800.658       46.497952      162.32229    
   1019000   300.00708      0.89426196     0.69752048     1.5917824      193.29882      106.3259       183.27706     -170.2633      -97.556903     -98.429294     -1662.4963      95.562612      35.766932    
   1020000   300.13548      0.89464471     0.69785174     1.5924965      193.19714      106.27291      183.29482      83.608747      244.98776     -70.854429     -1825.7687      13.43962       69.924322    
   1021000   300.1745       0.89476102     0.69707615     1.5918372      193.18237      106.31886      183.32759      310.51594      32.031012      75.494053     -1796.9902      76.404089      28.973316    
   1022000   300.06505      0.89443476     0.69755206     1.5919868      193.22565      106.33149      183.33117     -183.75518      27.987702     -43.564441     -1689.7903     -33.384854      80.30536     
   1023000   300.13899      0.89465517     0.69706758     1.5917227      193.29044      106.36389      183.24101     -339.9167      -428.49866      73.788473     -1685.353       82.558711      82.085127    
   1024000   299.42961      0.89254064     0.69795247     1.5904931      193.30167      106.30752      183.26471      22.134686     -17.726739      76.892748     -1869.8618     -72.682334     -24.926856    
   1025000   299.89267      0.89392094     0.69624309     1.590164       193.3762       106.24873      183.31316     -154.39376      64.20826       152.28345     -1838.9006      31.449993      21.175036    
   1026000   300.24594      0.89497397     0.69906352     1.5940375      193.29196      106.30067      183.36585     -41.733791      26.357999      27.801186     -1608.6657     -93.410041      33.746308    
   1027000   299.58137      0.89299301     0.69932324     1.5923162      193.46927      106.35936      183.32942     -59.006825     -165.89074      167.61382     -1872.8033     -60.619058      176.60692    
   1028000   300.13725      0.89464998     0.69794322     1.5925932      193.335        106.36724      183.32506     -61.606018     -123.98423     -111.15597     -1804.6446      47.889674      63.844075    
   1029000   300.60212      0.89603566     0.69885189     1.5948876      193.50752      106.33272      183.39758      49.147205     -5.9704165      185.00139     -1974.6307      43.422308      11.414465    
   1030000   299.02036      0.89132074     0.69772463     1.5890454      193.40799      106.27603      183.38743      59.461406      8.6090474     -79.296962     -1954.7055     -57.963715      85.197433    
   1031000   299.76604      0.89354348     0.69828594     1.5918294      193.32028      106.31306      183.33846      250.7843       63.200097     -150.97843     -1823.1118      10.952871      134.23604    
   1032000   299.90551      0.8939592      0.69761011     1.5915693      193.40696      106.29742      183.39794     -200.32686      78.115998     -10.55459      -1614.5432     -26.492243      47.136197    
   1033000   300.32729      0.89521644     0.69736611     1.5925825      193.55755      106.23251      183.27021      150.7453       93.107774      99.818187     -1858.805      -10.429347     -4.9874483    
   1034000   299.42757      0.89253457     0.69863241     1.591167       193.47275      106.28087      183.41701      153.66905      57.70388       77.964924     -1654.0488      3.3313945      126.64934    
   1035000   300.03245      0.89433757     0.69685526     1.5911928      193.47285      106.26217      183.29858      213.15062      131.72389      188.69232     -1846.9499     -144.20318      19.04146     
   1036000   300.15863      0.89471371     0.69719573     1.5919094      193.54457      106.26411      183.18397     -330.93766     -340.26672     -6.0942288     -1762.5769      89.610538      253.29937    
   1037000   300.36157      0.89531862     0.70080456     1.5961232      193.5801       106.26533      183.30558      168.96742     -87.210542     -84.914959     -1800.7729     -87.889848      117.9825     
   1038000   300.12806      0.89462257     0.70011339     1.594736       193.5312       106.2874       183.34712     -219.86763     -105.32978     -14.785352     -1627.464      -45.129735     -41.75588     
   1039000   299.61047      0.89307975     0.69808274     1.5911625      193.47005      106.2411       183.25635      80.428951     -251.95612     -126.33173     -1940.2281     -63.26981       16.966759    
   1040000   299.75119      0.8934992      0.69925664     1.5927558      193.5268       106.25917      183.29375      367.80521     -169.29157     -210.59242     -1674.6224     -46.769485      100.57435    
   1041000   299.83697      0.89375489     0.69751159     1.5912665      193.56916      106.25867      183.24931     -248.52872      71.039917      157.70859     -1765.9879      49.69469      -49.501116    
   1042000   299.32154      0.89221849     0.69631583     1.5885343      193.54012      106.20406      183.30262     -126.19275     -142.95873     -96.633535     -1579.3415     -158.70354      129.33446    
   1043000   299.75732      0.89351748     0.69721951     1.590737       193.61382      106.16586      183.27535      16.302957      401.26677      31.554756     -1642.6753      66.828769      121.60442    
   1044000   299.89598      0.8939308      0.69876002     1.5926908      193.46623      106.25375      183.21398      110.60268     -210.14288      60.933993     -1675.2527      39.10189       84.658816    
   1045000   299.95483      0.89410623     0.69814248     1.5922487      193.55999      106.24044      183.31528      109.57411     -193.87429      14.240233     -1734.8063     -25.076873      175.8209     
   1046000   299.84225      0.89377065     0.697844       1.5916147      193.44638      106.23361      183.3349       291.73506      51.928427      141.7495      -1707.4967      12.265433      47.467213    
   1047000   299.94574      0.89407913     0.70023337     1.5943125      193.58664      106.26439      183.44493      111.4191      -88.74416      -113.07029     -1667.1725      20.179436     -6.8335225    
   1048000   300.04872      0.89438607     0.69660753     1.5909936      193.59625      106.21296      183.31512     -341.07897     -285.91253     -170.33001     -1591.0057     -103.73814     -0.024723733  
   1049000   299.54077      0.89287197     0.69961153     1.5924835      193.7219       106.16625      183.319       -307.73109     -36.048493     -7.3192147     -1545.2765     -80.803622      11.875757    
   1050000   300.34235      0.89526133     0.69904453     1.5943059      193.56395      106.23892      183.37773     -17.84202      -80.255526     -125.71295     -1532.71        75.967433      8.6188168    
   1051000   299.741        0.89346883     0.69854762     1.5920164      193.64         106.20095      183.30856     -243.95389     -102.9105      -106.34342     -1842.5812      27.003737      94.38762     
   1052000   299.87555      0.8938699      0.69900109     1.592871       193.52252      106.21233      183.35067      128.99159     -160.48762     -26.215904     -1538.7299     -43.61959       31.135839    
   1053000   299.85481      0.89380808     0.69819159     1.5919997      193.484        106.2099       183.38461      110.42628     -245.55698     -44.18159      -1492.0634      57.351405      94.559998    
   1054000   299.66969      0.89325628     0.69875805     1.5920143      193.54073      106.20811      183.32884      26.096765     -34.213285      16.9119       -1720.8767     -40.999137      137.7778     
   1055000   299.82837      0.89372925     0.69711014     1.5908394      193.58781      106.18678      183.34539      57.071706     -44.19497      -16.401991     -1701.4532      142.57723      85.970018    
   1056000   300.02608      0.8943186      0.69913712     1.5934557      193.57862      106.15488      183.32147     -32.490778     -67.43052       88.431809     -1520.7864      86.508802      93.176696    
   1057000   300.30802      0.89515902     0.69879623     1.5939552      193.59455      106.18333      183.31582      38.886202     -52.643127     -119.9925      -1601.7953     -5.0670887     -60.880051    
   1058000   299.66524      0.893243       0.69870671     1.5919497      193.57815      106.15911      183.41286      263.37513     -348.89971      19.712952     -1420.7377     -67.09849       3.5765431    
   1059000   299.34401      0.89228549     0.69892726     1.5912127      193.60118      106.1735       183.38447      39.502579     -119.95121      57.831947     -1526.713       143.97599      26.441954    
   1060000   300.41565      0.89547984     0.69948183     1.5949617      193.54335      106.1527       183.35801      145.4277      -119.92791     -254.22256     -1618.0385      74.123362     -49.022764    
   1061000   300.20186      0.89484258     0.6991788      1.5940214      193.65586      106.14737      183.24907     -3.1775225      276.0014       144.97986     -1664.2953     -101.87645      60.292348    
   1062000   300.53579      0.89583795     0.69549382     1.5913318      193.67221      106.12138      183.28274     -52.437377      138.79754      136.16363     -1560.4453      107.7326      -6.1468927    
   1063000   300.45605      0.89560027     0.69763139     1.5932317      193.57613      106.1664       183.30264      406.47603      110.94546      66.450763     -1641.4646      94.640946      53.660122    
   1064000   299.78337      0.89359513     0.69590041     1.5894955      193.73631      106.11314      183.29419     -237.40912      38.048846     -6.5050445     -1791.8575     -120.99534      75.815626    
   1065000   300.24566      0.89497311     0.69770577     1.5926789      193.6558       106.07961      183.27243     -330.83963     -50.575588      88.256147     -1618.4809      57.007313     -4.5519398    
   1066000   299.1644       0.8917501      0.69821672     1.5899668      193.6605       106.17784      183.42211      71.553253     -78.772128     -66.499025     -1520.5696     -29.657666     -0.47345238   
   1067000   300.11972      0.89459771     0.69725661     1.5918543      193.71541      106.10563      183.32074      134.29644      25.726109     -0.28432671    -1678.2062      18.274306      56.655045    
   1068000   299.93781      0.89405547     0.69602707     1.5900825      193.61893      106.14584      183.34506      55.707824      171.36279      44.141744     -1458.913       16.670124      120.62923    
   1069000   300.11896      0.89459545     0.69699381     1.5915893      193.59696      106.11336      183.25891      260.86176     -52.695579     -93.944208     -1399.6544     -29.830662     -35.474811    
   1070000   300.41672      0.89548303     0.69819526     1.5936783      193.80744      106.05059      183.11718      265.92526      450.17005      36.359027     -1495.1363     -49.840288      32.18935     
   1071000   299.80571      0.89366171     0.69704668     1.5907084      193.55463      106.1083       183.31611      56.757769     -276.57887      58.211011     -1662.9756      17.200874      151.15533    
   1072000   300.45563      0.89559899     0.69640342     1.5920024      193.65363      106.13066      183.21907     -204.86091     -287.89266     -46.370639     -1647.8208     -38.897884     -10.607488    
   1073000   300.79512      0.89661096     0.697521       1.594132       193.74771      106.10836      183.24793     -138.94088      148.4795       5.0800242     -1624.2632      9.1465201      22.966044    
   1074000   301.20378      0.89782908     0.69917339     1.5970025      193.74697      106.10415      183.33791      521.74413      264.43646     -67.651033     -1635.2107     -52.429624     -6.7351416    
   1075000   300.23961      0.89495509     0.69701435     1.5919694      193.68827      106.13161      183.12215     -43.811718     -43.885002      144.47832     -1586.3439     -20.936247      9.5453313    
   1076000   300.55508      0.89589546     0.6975075      1.593403       193.70132      106.13353      183.24802      103.44068     -67.997759      4.0789936     -1544.5936     -50.7299        147.71584    
   1077000   300.71406      0.89636933     0.69589831     1.5922676      193.74113      106.04026      183.29668     -70.679672     -24.715667      151.83903     -1893.9336     -80.594954      89.391549    
   1078000   300.33905      0.89525149     0.69596906     1.5912206      193.79131      106.01162      183.20548      157.94108      393.14174      6.4362556     -1406.0068      154.62894      57.187106    
   1079000   299.96172      0.89412676     0.69674356     1.5908703      193.77347      106.03046      183.24009     -419.40661      444.51316     -144.42045     -1390.6633     -97.651098      23.551766    
   1080000   300.21561      0.89488355     0.6994167      1.5943002      193.71328      106.0805       183.45086      12.039958      172.69975     -257.46095     -1591.9507      13.727174     -21.892507    
   1081000   299.91013      0.89397298     0.69751676     1.5914897      193.68344      106.058        183.26626      199.91178      148.3667       40.175707     -1378.2297     -5.8648543      97.454578    
   1082000   299.62065      0.8931101      0.69622643     1.5893365      193.80139      106.009        183.37821      105.75879      210.22121      43.890239     -1488.0053     -23.060164      36.222474    
   1083000   300.19535      0.89482317     0.69850429     1.5933275      193.86766      106.03489      183.26552      22.297281     -208.61316     -100.61846     -1511.8075     -102.57891      14.027756    
   1084000   299.53913      0.89286709     0.69816697     1.5910341      193.7751       106.06096      183.25544      154.1358       148.07767     -116.68742     -1647.802      -79.428513      64.497495    
   1085000   299.74966      0.89349465     0.69718654     1.5906812      193.90254      105.98149      183.25342      109.99353     -379.32038     -63.031284     -1370.9617     -15.463256     -4.6923426    
   1086000   299.89333      0.89392289     0.69680267     1.5907256      193.83944      106.05858      183.30876     -264.34494     -219.93702     -47.10659      -1420.5223      71.95438       103.41372    
   1087000   299.57674      0.8929792      0.69778749     1.5907667      193.88837      106.01793      183.36904     -69.832205      116.48114      193.47832     -1455.3402      68.399868      140.34584    
   1088000   299.98878      0.89420742     0.69738425     1.5915917      193.81304      106.05442      183.32403     -268.04728      78.569064     -107.85692     -1622.1712     -31.772852     -96.562446    
   1089000   299.86494      0.89383828     0.69913433     1.5929726      194.01159      105.99657      183.31165      2.0856802      95.796367      269.67365     -1456.5106     -3.0403987      141.56385    
   1090000   300.4713       0.89564571     0.69611842     1.5917641      193.93398      106.03079      183.34068     -251.6478       7.1650839     -8.4115657     -1444.9507     -168.41365      72.698319    
   1091000   299.95756      0.89411437     0.69628332     1.5903977      193.8581       106.03742      183.16232      242.54501     -154.85363     -121.15293     -1530.2733     -110.56926      118.78823    
   1092000   300.79116      0.89659916     0.69597571     1.5925749      193.8526       106.08179      183.25458      208.24697      263.70138     -93.625524     -1683.4018      78.446545      103.08685    
   1093000   299.92894      0.89402904     0.69696341     1.5909924      193.80078      106.02028      183.25357     -180.2549      -92.067949     -69.11191      -1475.0908      128.96043     -42.88274     
   1094000   299.83898      0.8937609      0.6973915      1.5911524      193.96364      106.01439      183.23227      39.353252      28.437688     -178.2074      -1417.0944      147.10318      102.33727    
   1095000   299.43263      0.89254965     0.69895207     1.5915017      193.91293      106.03469      183.3217       60.298774      14.666464     -12.978896     -1581.9113      8.1868228      2.4537648    
   1096000   300.01027      0.89427148     0.69910228     1.5933738      194.0052       106.03704      183.22039      220.78853      145.18448      144.181       -1336.8533      37.375484      21.181848    
   1097000   299.71861      0.89340208     0.69644647     1.5898485      193.95231      106.02894      183.22742      4.8290114      28.606931      1.353965      -1499.1533     -139.86562      210.48432    
   1098000   300.37206      0.89534989     0.69692588     1.5922758      193.99131      106.01724      183.21714     -37.695514     -199.78865     -131.52344     -1554.7386     -79.344078      1.6371856    
   1099000   299.57805      0.89298312     0.69839468     1.5913778      193.96516      106.00871      183.38218     -121.74422     -17.69625      -270.73995     -1579.5828      126.09181      176.84225    
   1100000   300.36433      0.89532686     0.698378       1.5937049      193.9543       106.00802      183.26042      232.8047      -80.142104      84.927013     -1298.7836      15.74846      -11.661385    
   1101000   298.9483       0.89110594     0.69572034     1.5868263      193.92822      105.98999      183.15691      88.607698      265.89984     -324.00924     -1413.1314      54.020034      79.177304    
   1102000   300.00496      0.89425564     0.69707573     1.5913314      194.00849      106.00337      183.23359     -335.40178     -59.407914     -63.997427     -1481.5425      152.22925      56.675614    
   1103000   299.45342      0.89261161     0.69837165     1.5909833      194.00901      105.95875      183.16716     -210.45601     -86.520042      201.34196     -1559.1556      23.513623      22.58536     
   1104000   300.40615      0.89545153     0.69693253     1.5923841      193.98082      105.93819      183.22733      118.22338      467.50475      109.95329     -1388.7446      24.42776       97.439107    
   1105000   299.9162       0.89399106     0.69658186     1.5905729      194.01489      105.94832      183.30532      129.39027      0.92615235     256.43408     -1503.2523      46.14927      -49.977899    
   1106000   300.21604      0.89488483     0.69705972     1.5919446      193.93722      106.02755      183.25598     -312.38809     -153.34642     -188.52815     -1416.9924      50.036468     -131.11657    
   1107000   299.91208      0.89397877     0.69875115     1.5927299      193.88098      106.03372      183.22635      255.70248      88.862198     -101.44481     -1446.0001     -34.527046      157.06419    
   1108000   300.37779      0.89536699     0.69796098     1.593328       194.05878      105.98564      183.17546      48.153299     -78.248784      274.56148     -1475.9714      75.298457     -60.39132     
   1109000   299.73985      0.89346539     0.69687315     1.5903385      194.23872      105.95963      183.15077     -347.72851     -176.46611     -161.59312     -1616.8348     -36.104139      31.93971     
   1110000   299.7256       0.89342292     0.69653038     1.5899533      194.03244      105.9685       183.16979     -214.41773     -59.121985      70.761325     -1466.6819     -17.751839      45.772989    
   1111000   300.57114      0.89594332     0.6980014      1.5939447      193.9028       105.95771      183.37817      171.22059     -31.069695     -8.0967827     -1353.3892      147.08322     -40.886043    
   1112000   299.68622      0.89330554     0.69813178     1.5914373      194.16479      105.93463      183.20209      162.27809      210.5975      -18.323571     -1380.5717     -16.674134      33.664637    
   1113000   299.98573      0.89419831     0.69636335     1.5905617      194.06519      105.96734      183.14479      122.77382      69.983953      126.35255     -1325.7306     -68.816997     -51.111965    
   1114000   300.00122      0.89424451     0.69658674     1.5908312      194.01198      105.98067      183.31477      38.957546     -99.346484      40.314453     -1253.7073      56.974856     -139.44793    
   1115000   300.36676      0.8953341      0.69919276     1.5945269      194.20973      105.96194      183.29255     -212.05005     -33.500001     -109.33072     -1363.6867      261.30078      17.088588    
   1116000   299.98853      0.89420667     0.69858612     1.5927928      194.04171      105.98627      183.14763      163.86543      191.33329      130.84231     -1398.0918     -106.15454      101.35504    
   1117000   299.82727      0.89372597     0.69907766     1.5928036      194.15808      105.92396      183.28923      309.86578     -114.30155      61.880398     -1377.5632     -53.315199      16.357028    
   1118000   299.83303      0.89374316     0.69769296     1.5914361      194.08491      105.90774      183.25674     -221.66236      150.6462       45.857069     -1179.8668      14.633203      49.312946    
   1119000   300.06352      0.89443019     0.69791915     1.5923493      194.20543      105.90905      183.23356      69.212792     -377.47772     -122.2529      -1357.4063      59.302585      123.96846    
   1120000   299.81466      0.8936884      0.69683925     1.5905276      194.03281      105.93534      183.15704      20.925216     -436.55601     -33.552249     -1347.2643     -72.91914       82.096319    
   1121000   300.02108      0.89430369     0.69783182     1.5921355      194.14427      105.84335      183.32404     -204.3962      -354.37317     -30.76901      -1314.1418      133.66498     -5.0543972    
   1122000   299.885        0.89389807     0.69681118     1.5907092      194.07003      105.89322      183.2658       338.99629     -30.699517      21.878576     -1350.1888      25.199028     -8.7109953    
   1123000   299.55056      0.89290117     0.69465398     1.5875552      194.09636      105.86902      183.15962     -176.73174     -125.25004     -41.11909      -1040.2212      37.44273       73.934161    
   1124000   300.62663      0.89610872     0.69595658     1.5920653      194.05481      105.85407      183.1358      -114.26739     -23.865983      192.02827     -1166.428       61.749732      82.75475     
   1125000   299.59576      0.89303589     0.69614232     1.5891782      194.17463      105.83169      183.11635     -30.574951     -8.4669556      94.074764     -1088.3043      164.36745     -29.262159    
   1126000   299.72394      0.89341797     0.69611908     1.5895371      194.10306      105.86019      183.24143     -8.1557565     -73.257654     -107.33976     -1400.13        3.4325105     -12.138065    
   1127000   300.03538      0.89434631     0.69500986     1.5893562      194.12619      105.84813      183.31178     -119.84026      293.01678     -203.78396     -1033.3038      41.330452      75.436565    
   1128000   299.87144      0.89385764     0.6964323      1.5902899      194.14854      105.77148      183.2202      -170.09315      20.698708     -50.332936     -1280.4143     -68.53822       4.0624354    
   1129000   300.10922      0.89456642     0.69498103     1.5895475      194.03615      105.81961      183.16524     -12.581062      11.650302      53.198659     -1393.7193     -38.194788     -29.614802    
   1130000   299.74196      0.89347169     0.69333928     1.586811       194.04007      105.8248       183.16564     -20.278614      154.84095      36.212256     -1148.844       17.114552      109.61103    
   1131000   299.63341      0.89314814     0.69439527     1.5875434      194.02557      105.8404       183.14225      359.59208      321.7938       64.515269     -1063.577       105.76794      141.03517    
   1132000   300.19341      0.89481737     0.69678386     1.5916012      193.96595      105.81211      183.26539     -283.95086      127.61744      252.35953     -1396.7409      54.948377     -3.7362317    
   1133000   300.44337      0.89556245     0.69604078     1.5916032      194.04928      105.77673      183.07445      85.802925      178.25668     -26.382031     -1222.2226      7.4488639      2.026198     
   1134000   300.09125      0.89451284     0.69630396     1.5908168      194.02357      105.76348      183.14263      215.77422     -131.25297      215.42827     -1041.2361     -218.38994      80.950979    
   1135000   299.87282      0.89386175     0.69594631     1.5898081      193.96943      105.78406      183.23508      261.11654      91.743163      70.065447     -1360.3139     -37.367259      20.751072    
   1136000   300.23914      0.89495368     0.69581581     1.5907695      193.96996      105.76626      183.29041     -204.92975     -30.679679      78.741998     -1471.9115     -33.938592     -71.459792    
   1137000   299.91852      0.89399798     0.69495149     1.5889495      193.92211      105.75712      183.21889     -21.413825     -74.813664      30.748329     -1311.2227      0.043488092    40.975177    
   1138000   299.88772      0.89390619     0.69545707     1.5893633      193.86784      105.84049      183.13293      41.087438     -96.933898      4.9145202     -1401.2167     -39.515211      5.5357983    
   1139000   300.50215      0.89573765     0.69727059     1.5930082      193.99705      105.77496      183.25286     -248.77721     -278.37647      159.30535     -1080.0849      12.384924      134.07681    
   1140000   300.36649      0.8953333      0.69232575     1.587659       194.01887      105.79071      183.19208      266.02956     -298.5925      -18.140268     -1383.1217      17.623262      33.183848    
   1141000   299.94078      0.89406432     0.69350901     1.5875733      193.93648      105.75729      183.1345       295.07375     -99.939094     -21.636418     -1437.3422      5.9316609     -69.739469    
   1142000   300.39291      0.89541204     0.69482685     1.5902389      193.99249      105.77727      183.27593     -323.8737      -404.41708     -237.99813     -1085.6529     -6.9904477      100.36353    
   1143000   300.40383      0.89544459     0.69471056     1.5901551      193.92304      105.78102      183.27309     -101.74534      154.84106     -19.897618     -1263.3469      17.55958       56.181595    
   1144000   300.74502      0.89646163     0.69433955     1.5908012      193.92999      105.80416      183.2533       136.13001      47.107119      12.476645     -1331.8223      122.6841       262.13961    
   1145000   299.65836      0.89322249     0.69350445     1.5867269      194.04669      105.78084      183.13181      12.670094      128.30139     -107.60689     -1178.4129      91.519415      76.367111    
   1146000   299.72014      0.89340666     0.69446472     1.5878714      194.05561      105.72472      183.16864      38.356964      78.116684     -40.59361      -1320.182      -103.83408      89.517494    
   1147000   300.33         0.89522453     0.69606362     1.5912881      193.96519      105.7897       183.23871      173.19199      112.52409     -31.066932     -1255.3565     -57.990936     -59.773579    
   1148000   300.3804       0.89537476     0.69547741     1.5908522      193.99503      105.78409      183.0845      -156.02572      193.25354      102.3245      -1082.5571     -56.094849     -48.39862     
   1149000   300.4249       0.8955074      0.69274879     1.5882562      194.03201      105.73871      183.07215      123.71063     -168.99144     -69.456399     -1332.8675      177.41579      36.721869    
   1150000   300.0361       0.89434847     0.69562138     1.5899698      194.10052      105.69437      183.06359      250.68898     -67.592483     -211.78462     -1400.9906      44.033661     -8.3731156    
   1151000   300.09474      0.89452326     0.69703716     1.5915604      194.02781      105.77243      183.16104      14.554779      10.962612      122.32669     -1116.8569     -70.289778      101.74279    
   1152000   299.73649      0.89345539     0.69403226     1.5874877      194.08413      105.71091      183.21433     -120.81118      107.72633      69.249062     -1320.9858     -90.717958     -47.862611    
   1153000   300.76893      0.8965329      0.6957878      1.5923207      194.03297      105.75378      183.1374      -187.73243     -61.313222     -21.928703     -1252.0295      25.858468     -122.2147     
   1154000   300.13862      0.89465407     0.69536361     1.5900177      193.97967      105.71825      183.33053      162.37091     -21.805543     -83.857485     -1267.5118     -1.7975897     -26.781492    
   1155000   299.72437      0.89341926     0.69391478     1.587334       193.99847      105.71858      183.29735      45.558454      123.5806      -192.52869     -1382.2916     -59.141246     -11.017483    
   1156000   300.16989      0.89474726     0.69459014     1.5893374      193.97677      105.68435      183.15316      77.351183      53.440104     -89.611948     -1440.6036      48.219404      135.08449    
   1157000   299.94679      0.89408226     0.69184967     1.5859319      193.86867      105.74665      183.09039     -94.273135      58.497767     -59.275025     -1371.2424      107.87963      146.46741    
   1158000   299.79212      0.89362122     0.69481516     1.5884364      194.04341      105.68709      183.3028      -328.24864      279.04518      20.562651     -1362.6746      198.90176      73.758696    
   1159000   300.16619      0.89473624     0.69499969     1.5897359      193.94339      105.6889       183.28346      422.40901      268.55694     -24.842932     -1345.7093      49.165557     -125.50909    
   1160000   300.20792      0.89486064     0.69576861     1.5906293      193.99784      105.68853      183.17828     -68.856615     -46.174785     -40.420325     -1182.7541      209.4857      -104.66389    
   1161000   300.29922      0.89513278     0.69434207     1.5894748      193.91096      105.67796      183.15794      281.40859      295.43463      210.96913     -1261.9972      46.663073     -15.476488    
   1162000   299.09874      0.89155439     0.69357824     1.5851326      193.90319      105.72836      183.37046      98.668538     -40.614745     -43.877227     -1206.9549     -16.212248     -54.522669    
   1163000   300.33803      0.89524847     0.69242744     1.5876759      193.92124      105.74576      183.18893      265.64232      118.9527       101.32337     -1272.0647      90.926858      155.59752    
   1164000   299.88729      0.89390488     0.69369132     1.5875962      193.99828      105.65345      183.16622      1.6972102     -76.00187       125.39213     -1174.1132     -211.6004       108.31228    
   1165000   300.91583      0.89697075     0.69330161     1.5902724      193.93266      105.69059      183.24567      313.83545      125.23686      141.87336     -1288.7103      33.375355      59.868279    
   1166000   299.953        0.89410075     0.69201966     1.5861204      193.88811      105.76179      183.1215       99.339862      23.340887     -182.05802     -1452.1206     -271.96181      158.04738    
   1167000   300.06444      0.89443293     0.6939         1.5883329      193.92279      105.7705       183.18655     -150.34467     -143.38148      106.65477     -1358.6128      35.271508      34.74865     
   1168000   300.14314      0.89466752     0.69521261     1.5898801      193.8316       105.71271      183.35156      267.89618      420.53063      60.017084     -1180.551      -90.50731      -33.973684    
   1169000   299.81406      0.89368662     0.69440922     1.5880958      193.99906      105.68716      183.1917      -150.38966     -154.507       -148.5315      -1167.9778      73.444561     -6.1047063    
   1170000   299.71864      0.89340217     0.69500508     1.5884072      194.04497      105.71876      183.23316     -206.73681     -104.29903      159.87185     -1312.8362      119.88059      248.36297    
   1171000   300.26094      0.89501866     0.69413667     1.5891553      194.02264      105.69888      183.29657     -178.32183     -510.61681     -341.34258     -1100.9148     -42.694349     -169.71186    
   1172000   300.28237      0.89508254     0.69450965     1.5895922      193.92961      105.72676      183.33004      127.79197      408.94912      88.079999     -1133.9623     -94.122835     -18.725598    
   1173000   299.61015      0.89307881     0.6942394      1.5873182      194.02102      105.73701      183.16264      6.1732441     -281.25025     -47.934967     -1610.7562     -67.121943      71.265485    
   1174000   299.90921      0.89397023     0.6943532      1.5883234      194.05827      105.72893      183.08685     -135.99024      31.023059      6.8723355     -1442.0212     -4.2686311     -5.4197528    
   1175000   300.5664       0.89592918     0.69594934     1.5918785      194.03732      105.7061       183.21404     -3.0304118      400.75777     -94.316711     -1419.1401     -111.4205       116.85821    
   1176000   299.93367      0.89404315     0.69475741     1.5888006      194.11411      105.65464      183.31361     -66.973706     -196.88035     -181.22366     -1222.6928     -45.254412      81.624953    
   1177000   299.68114      0.89329039     0.69680921     1.5900996      194.03492      105.72395      183.18803     -90.067253      70.758245      141.9596      -1143.0776     -12.741228      118.11414    
   1178000   300.00391      0.89425252     0.69633711     1.5905896      194.00582      105.78092      183.1794      -75.697488     -264.94492     -212.40565     -1325.0346      70.673312      46.24572     
   1179000   299.86588      0.89384108     0.69377164     1.5876127      194.10117      105.71573      183.21759      127.74092     -183.47475     -69.562936     -1302.5904     -43.836504     -71.666083    
   1180000   299.77416      0.89356767     0.69493537     1.588503       194.06007      105.7355       183.22305     -372.15295     -301.48829      131.95236     -1259.3226     -52.495946      14.254251    
   1181000   300.11717      0.89459012     0.69443734     1.5890275      194.03869      105.7219       183.16852     -181.00171      39.571077     -68.745925     -1500.6391      16.479515     -15.577008    
   1182000   299.18945      0.89182477     0.6954694      1.5872942      194.03553      105.70759      183.23267     -44.249637     -138.2815       62.069015     -1374.9027     -175.59873      92.149126    
   1183000   299.9216       0.89400716     0.6938842      1.5878914      194.00123      105.71783      183.15894     -138.84737      103.75329     -216.3993      -1398.3809     -173.47124      175.57661    
   1184000   299.78169      0.89359012     0.69482196     1.5884121      194.08803      105.70749      183.16692      143.06188     -204.53851     -12.041514     -1475.4226      7.427995       80.432565    
   1185000   300.31459      0.89517859     0.69376542     1.588944       194.0998       105.68565      183.2395      -179.10069     -99.881149     -170.01737     -1331.4815     -16.930818      141.60841    
   1186000   299.99907      0.89423808     0.69409725     1.5883353      194.15613      105.71661      183.11718     -150.09946      330.17114      82.216518     -1271.4746      119.69429      65.504842    
   1187000   299.75658      0.89351526     0.6952154      1.5887307      194.16202      105.70227      183.15923     -255.08113     -204.77374     -5.8374055     -1497.7665     -71.15912      -10.138046    
   1188000   299.55769      0.89292241     0.69462504     1.5875474      194.09042      105.71842      183.33051     -0.63595261    -270.05857      19.68685      -1392.7821      168.48189      147.13669    
   1189000   300.21924      0.89489436     0.69298971     1.5878841      194.06214      105.70571      183.12801     -157.6254       70.109262      111.53564     -1297.7273     -17.911875      23.240009    
   1190000   299.75532      0.89351153     0.69526253     1.5887741      194.06683      105.73837      183.26482      197.84987     -2.7040513     -23.352584     -1206.1888     -170.91051      41.464815    
   1191000   300.03227      0.89433705     0.69612692     1.590464       194.19937      105.76407      183.31025      76.359823     -332.39973     -8.7857738     -1645.5037      19.644687      121.01617    
   1192000   299.56355      0.89293989     0.69633483     1.5892747      194.13387      105.70322      183.21071      259.41205      105.37741     -8.6169013     -1444.9361      85.633557     -2.7539552    
   1193000   300.71681      0.89637753     0.69332357     1.5897011      194.08208      105.69646      183.15287      161.07883     -244.54755      41.040772     -1412.1347     -10.427387      69.544546    
   1194000   300.06691      0.89444032     0.69507023     1.5895106      194.03686      105.73018      183.20284     -32.600566     -238.65802     -13.344118     -1379.0183     -128.89822      66.012675    
   1195000   300.16535      0.89473373     0.6966232      1.5913569      194.14826      105.78973      183.24613      189.17534      118.50693      120.99106     -1395.5197      147.1013      -30.047846    
   1196000   299.85265      0.89380164     0.69536736     1.589169       194.15119      105.73483      183.246        147.00268     -17.471201      143.3547      -1147.0595     -21.206559      196.16334    
   1197000   299.93168      0.89403721     0.69588757     1.5899248      194.26569      105.72576      183.3808      -148.16119     -84.848503      154.13588     -1371.327       4.3134591      99.003865    
   1198000   300.21739      0.89488886     0.69541164     1.5903005      194.115        105.73514      183.17146      372.99142      177.58432      172.86988     -1444.6097      50.888614      110.3684     
   1199000   299.29158      0.89212919     0.69491561     1.5870448      194.18989      105.656        183.08437     -21.949397      291.42913      146.79757     -1417.6189      102.96464      125.05853    
   1200000   299.63002      0.89313802     0.69651753     1.5896556      194.12377      105.69892      183.33989     -246.53732     -103.97979     -119.24428     -1571.9397     -2.1856508      185.72112    
   1201000   299.86763      0.8938463      0.69441143     1.5882577      194.14677      105.70005      183.22067     -97.290999      306.13289      30.850344     -1493.2496      33.300081      31.770415    
   1202000   299.53441      0.89285302     0.69483442     1.5876874      194.14465      105.75455      183.17536      174.49871      67.987631     -121.6109      -1683.8138     -13.580894      97.093564    
   1203000   300.02994      0.8943301      0.69429502     1.5886251      194.06049      105.73821      183.29356      35.053182      172.05566     -125.48859     -1389.7835      61.497461     -28.883214    
   1204000   299.81826      0.89369912     0.69544251     1.5891416      194.11882      105.75024      183.15666      20.631616      269.95909      81.471128     -1506.5603     -9.4106076     -16.050607    
   1205000   299.55901      0.89292637     0.69645139     1.5893778      194.04476      105.74042      183.34134     -134.1119      -53.171257     -62.080494     -1503.1125      68.130616      190.10394    
   1206000   300.24735      0.89497817     0.69609905     1.5910772      194.17645      105.67924      183.29947      50.555514     -92.918041     -51.772712     -1592.6315      43.170251      19.105669    
   1207000   300.20958      0.89486557     0.69462034     1.5894859      194.17588      105.75316      183.26839     -178.24617      74.090297     -111.8576      -1370.0008      28.395217      112.88891    
   1208000   300.66232      0.89621509     0.69413583     1.5903509      194.10061      105.71856      183.1551       151.99284     -17.137357     -60.169733     -1436.3761      110.09646      12.48362     
   1209000   300.74027      0.89644745     0.69498112     1.5914286      194.18725      105.65683      183.2831       17.153417      164.99182     -35.498224     -1576.3041      106.9737       165.17982    
   1210000   300.26329      0.89502566     0.69547917     1.5905048      194.1939       105.72795      183.38312      316.42235     -189.15882      64.833482     -1457.1333     -64.466319      8.664618     
   1211000   299.86619      0.89384198     0.69584898     1.589691       194.21762      105.7079       183.27303      8.1157592      29.427619     -16.294098     -1496.5569     -57.981243      17.799563    
   1212000   300.03327      0.89434004     0.69688087     1.5912209      194.30037      105.74196      183.20405     -262.94522      33.912415     -78.057541     -1367.5257      115.12359      60.761599    
   1213000   300.03471      0.89434433     0.69678761     1.5911319      194.24036      105.77654      183.16275     -64.993683     -2.3483564     -1.5728037     -1436.5252     -40.101139      114.08213    
   1214000   299.64938      0.89319573     0.69634724     1.589543       194.27396      105.72936      183.31859      44.739901      316.70145      84.549656     -1541.5461     -195.79686      127.77277    
   1215000   300.09806      0.89453317     0.69572571     1.5902589      194.29472      105.66495      183.1951      -140.29934      221.4515       61.687241     -1457.0144     -158.29746      122.03281    
   1216000   299.93709      0.89405333     0.69763421     1.5916875      194.25424      105.73297      183.22611     -109.87247      69.016596     -112.82061     -1517.1181     -47.633627      83.180563    
   1217000   300.6241       0.89610118     0.69724018     1.5933414      194.26151      105.72149      183.23259     -179.67746      90.810382      117.19583     -1528.3222      61.692855      77.752881    
   1218000   299.79776      0.89363803     0.69505009     1.5886881      194.24803      105.75885      183.22714      125.98735     -70.286552      52.148328     -1613.8802      62.112627      23.078834    
   1219000   299.78973      0.89361409     0.69728541     1.5908995      194.3694       105.6921       183.24682     -294.4973       65.193601     -54.189358     -1787.2011     -68.808573      36.690073    
   1220000   300.72396      0.89639885     0.6960999      1.5924987      194.29996      105.7197       183.25951     -170.56708     -165.16652      176.82496     -1692.1375      132.63775      9.0788642    
   1221000   299.73039      0.89343721     0.69626686     1.5897041      194.2923       105.70377      183.25799      188.52564      97.875526      120.08249     -1506.8089     -85.704489      148.86615    
   1222000   300.09025      0.89450987     0.69570998     1.5902199      194.33311      105.64605      183.30685     -47.165112     -149.20793      46.087866     -1559.4191     -120.21757      209.03832    
   1223000   299.30089      0.89215695     0.69794376     1.5901007      194.201        105.71067      183.27825     -1.6189414      55.834556      24.400785     -1584.7634      41.704542      234.2829     
   1224000   299.71341      0.8933866      0.69612919     1.5895158      194.2785       105.67445      183.21662      102.84451     -81.346461     -159.70611     -1757.6141     -221.90443      117.36359    
   1225000   300.11645      0.89458798     0.69716094     1.5917489      194.17611      105.77194      183.18494     -58.284316      201.81476      91.521993     -1537.3449     -26.978255     -23.876592    
   1226000   299.97686      0.89417188     0.69523473     1.5894066      194.21839      105.75041      183.18187      38.67874       201.86831      18.827115     -1766.6718     -129.12554     -29.286018    
   1227000   299.95212      0.89409813     0.69741005     1.5915082      194.26694      105.7253       183.33548     -94.17192       50.550221     -229.29779     -1398.4611     -158.24106      66.461493    
   1228000   299.96258      0.8941293      0.69921415     1.5933435      194.25517      105.67955      183.36465      162.94052      181.48218     -180.14023     -1536.9096     -107.4148      -76.125943    
   1229000   300.02792      0.89432408     0.69650552     1.5908296      194.2405       105.76048      183.25942      344.65689     -70.128949      26.424374     -1398.7051     -76.230467      52.872633    
   1230000   299.40683      0.89247274     0.69525854     1.5877313      194.28789      105.70609      183.2173      -154.8228       98.035546     -78.902021     -1656.2394     -0.2075346      250.17646    
   1231000   300.0327       0.89433833     0.69672719     1.5910655      194.37046      105.73103      183.2537       41.045355     -40.113391     -110.61191     -1361.2801      11.362823     -9.6768257    
   1232000   299.90129      0.89394662     0.69683492     1.5907815      194.48324      105.72685      183.22099     -54.246671      58.67155       121.70443     -1442.9847     -61.75355       51.140917    
   1233000   299.58032      0.89298986     0.69643997     1.5894298      194.43158      105.70153      183.25591      71.772601     -270.3387      -46.015971     -1420.7369     -17.837187      81.158194    
   1234000   299.97528      0.89416716     0.69590895     1.5900761      194.29679      105.75504      183.33875      255.68525      402.17609     -131.51008     -1578.4872      91.42998      -14.985153    
   1235000   299.91111      0.8939759      0.69784531     1.5918212      194.42486      105.72657      183.32891     -67.056403     -127.81342     -46.208772     -1565.6352     -32.311617      36.479086    
   1236000   300.08468      0.89449327     0.69814312     1.5926364      194.47426      105.71401      183.36283     -165.14182     -93.393144      62.333415     -1469.0624      42.127197     -144.69728    
   1237000   300.33377      0.89523577     0.69644513     1.5916809      194.39114      105.72057      183.1344      -23.078192     -205.8918       169.52736     -1524.2663      76.587713      88.370435    
   1238000   300.22803      0.89492056     0.69633304     1.5912536      194.45181      105.70548      183.25639      117.02467     -75.395889      205.43868     -1552.261      -96.717562      19.518891    
   1239000   299.6385       0.89316331     0.69771964     1.5908829      194.47847      105.70172      183.40992     -25.941008      21.230711      57.633415     -1583.8681     -42.372865     -6.3454005    
   1240000   300.05781      0.89441319     0.69666976     1.5910829      194.65359      105.74061      183.23041     -438.35483     -143.57581     -213.82122     -1665.7739     -105.11953      39.086297    
   1241000   299.9607       0.8941237      0.69673453     1.5908582      194.41443      105.76727      183.25411      8.1251521     -156.26016      245.03429     -1765.5782      60.728668     -32.720432    
   1242000   300.03006      0.89433045     0.69829031     1.5926208      194.50666      105.70684      183.20531     -64.084909      104.0845      -50.42831      -1716.3091      106.12737      80.844159    
   1243000   299.86093      0.89382631     0.69735598     1.5911823      194.35064      105.71999      183.29775     -8.5546625      231.19657     -118.35661     -1709.1168      54.984297     -25.232195    
   1244000   300.45282      0.89559061     0.69889277     1.5944834      194.38822      105.71914      183.29932      292.4546      -193.87209     -103.88361     -1658.7477      80.183705     -49.195425    
   1245000   300.19359      0.89481792     0.69957011     1.594388       194.54319      105.6943       183.25137      206.3614       110.21476     -111.21412     -1470.1928     -54.899097      55.277154    
   1246000   299.6455       0.89318416     0.69736855     1.5905527      194.42998      105.7018       183.36671     -47.224622     -107.49898     -75.637668     -1568.4914      90.410067      51.152416    
   1247000   300.17172      0.89475273     0.69688652     1.5916392      194.47798      105.75277      183.2918      -37.143314     -169.02178      65.826214     -1648.9567      75.219962      59.601785    
   1248000   300.28213      0.89508184     0.69879335     1.5938752      194.48769      105.7726       183.22561     -13.637203     -155.91862      38.474015     -1604.289       33.993858     -17.540238    
   1249000   300.3114       0.89516909     0.69952588     1.594695       194.62279      105.72939      183.16118     -218.77997      5.1303907      54.630564     -1690.8806     -54.217488      218.10155    
   1250000   300.30907      0.89516215     0.69483135     1.5899935      194.54428      105.71569      183.18619      72.893816     -136.848        64.394968     -1737.3407      1.285847       173.47333    
   1251000   299.93899      0.89405899     0.69825251     1.5923115      194.54994      105.78153      183.29234     -135.07951      43.56015      -45.013882     -1545.8016     -45.472075      56.544003    
   1252000   299.93916      0.89405952     0.69754018     1.5915997      194.61134      105.7075       183.20582      120.67087     -174.84609     -11.765108     -1512.017      -40.160866      95.451615    
   1253000   300.15189      0.89469361     0.69730212     1.5919957      194.51345      105.74094      183.19297      452.06836      199.62653      347.41534     -1623.9577      110.62503      64.875059    
   1254000   299.987        0.89420211     0.69887349     1.5930756      194.57682      105.71866      183.2792       288.95943      237.36129     -18.120504     -1699.0653      20.198461     -70.598218    
   1255000   300.32364      0.89520556     0.69698125     1.5921868      194.55181      105.80198      183.15669     -13.446794     -200.04885     -8.1585939     -1660.7952     -56.970188     -58.547647    
   1256000   299.90669      0.89396273     0.69834839     1.5923111      194.66357      105.72883      183.26509     -213.43316      16.786891      1.8224039     -1413.8515      139.28404     -50.605107    
   1257000   299.90292      0.89395148     0.69956071     1.5935122      194.64743      105.78224      183.24201     -30.554406     -344.91562     -200.80241     -1700.8326      33.439737      75.438341    
   1258000   299.86332      0.89383344     0.69911719     1.5929506      194.53116      105.87328      183.1775      -89.995504     -450.83126      83.284342     -1449.9107      15.455685      58.743606    
   1259000   299.65268      0.89320555     0.7001987      1.5934043      194.70125      105.7466       183.33498      118.79276      30.295889      64.277188     -1690.0136      36.252898      24.627293    
   1260000   299.97704      0.89417242     0.69800679     1.5921792      194.55574      105.78488      183.12187      556.87423      297.87316      55.475864     -1655.1377      11.268788      84.174528    
   1261000   299.81946      0.89370271     0.69765003     1.5913527      194.67502      105.69074      183.18688      135.74983      117.18349      107.75873     -1499.0129     -113.31647      110.40643    
   1262000   299.47373      0.89267216     0.70065506     1.5933272      194.68205      105.69132      183.32667     -204.58147     -109.54897      28.255135     -1753.5754     -34.22255       20.749545    
   1263000   299.63852      0.89316335     0.69918053     1.5923439      194.64077      105.72347      183.21508     -18.017565     -39.845242     -137.29087     -1807.4203      41.341391     -37.916508    
   1264000   300.12864      0.89462431     0.69874017     1.5933645      194.71746      105.79354      183.19514     -89.991991     -21.22842       13.22208      -1661.5337     -70.930464      38.822505    
   1265000   300.21807      0.89489088     0.69744878     1.5923397      194.69544      105.75339      183.26672     -175.18013     -60.275503      35.78693      -1479.9383     -2.9807125      137.06991    
   1266000   300.12405      0.89461062     0.70058124     1.5951919      194.71905      105.67501      183.2778       39.049943     -27.211379      22.613884     -1825.4361      16.944773      22.331824    
   1267000   299.42073      0.89251416     0.69801233     1.5905265      194.67563      105.76769      183.19649      219.51253     -466.31505     -184.49575     -1731.2222      19.05764      -29.088908    
   1268000   299.88729      0.89390488     0.6978737      1.5917786      194.72895      105.76799      183.09433      155.9276       248.10807      140.57632     -1589.5619     -159.22269      58.750597    
   1269000   299.70118      0.89335013     0.69940288     1.592753       194.71719      105.73659      183.27012      64.685307     -0.1860895      209.48584     -1448.4952      19.332985      71.80116     
   1270000   300.48527      0.89568736     0.69983235     1.5955197      194.83688      105.6739       183.22452     -15.503599      574.68854      95.135542     -1798.6599      56.759977      54.175287    
   1271000   300.7555       0.89649285     0.69845227     1.5949451      194.73332      105.74529      183.26566      241.28993      87.599817      77.538187     -1565.985      -78.203262     -33.658033    
   1272000   300.41261      0.89547076     0.70055083     1.5960216      194.66276      105.77319      183.22381      44.382336      317.09031     -28.833069     -1468.482       65.443539     -58.519131    
   1273000   299.82429      0.89371712     0.69968626     1.5934034      194.74443      105.70689      183.17956     -10.993408     -3.2377684      26.965854     -1689.2963      83.160391      66.000551    
   1274000   300.21428      0.89487958     0.69831066     1.5931902      194.79322      105.63093      183.29343      75.277108      190.33172     -102.90842     -1656.4418      60.242245     -6.4067218    
   1275000   300.48864      0.89569741     0.69964562     1.595343       194.83145      105.66992      183.25419      47.966499      221.04469      210.02535     -1394.5282     -80.080999      45.183403    
   1276000   299.69579      0.89333408     0.69765471     1.5909888      194.80312      105.71649      183.20444      64.749709      201.14775      97.90815      -1598.8175      68.399243      96.718772    
   1277000   299.53663      0.89285965     0.69873352     1.5915932      194.84612      105.7018       183.27761      40.386985     -25.411413      148.99266     -1680.7573     -50.655273     -9.7791171    
   1278000   300.33191      0.8952302      0.69765163     1.5928818      194.8419       105.71837      183.20917      54.23318       278.51966      151.09224     -1554.977       26.504345      55.53472     
   1279000   300.5627       0.89591817     0.69859145     1.5945096      194.80577      105.6942       183.18345      207.65135      467.84702      64.25514      -1627.2933      96.254204     -11.60234     
   1280000   299.85943      0.89382186     0.69852018     1.592342       194.84911      105.64633      183.26119      24.758241      255.58247      121.41968     -1607.5553      35.10128       58.08068     
   1281000   299.97018      0.89415196     0.69904999     1.593202       194.86568      105.70791      183.20831     -115.57118      17.915561      33.311534     -1685.0344     -34.688945      96.435993    
   1282000   299.98815      0.89420554     0.69955673     1.5937623      194.89304      105.69417      183.17544      373.29687      92.283336      101.94274     -1695.6045      32.302742      27.636545    
   1283000   300.57212      0.89594624     0.69933165     1.5952779      194.76416      105.6766       183.28924     -168.55         100.25229      150.32063     -1625.8431     -179.02733      51.050153    
   1284000   300.43814      0.89554687     0.70084997     1.5963968      194.79233      105.72072      183.41822      92.947161      470.82195     -59.752925     -1622.5143     -32.780819      25.25123     
   1285000   299.87278      0.89386163     0.69790947     1.5917711      194.88172      105.67111      183.26949      302.0631       232.37214      18.511423     -1538.2088     -41.868702      13.194869    
   1286000   299.84863      0.89378965     0.69812788     1.5919175      194.86848      105.73369      183.12395     -66.252953      204.6618       74.37901      -1864.7046     -33.698731      136.70587    
   1287000   299.04035      0.89138034     0.697241       1.5886213      194.80272      105.70623      183.2179       9.3581241     -168.28034      22.931127     -1622.0176      27.698594      80.26133     
   1288000   300.89443      0.89690697     0.69802193     1.5949289      194.83293      105.70024      183.253       -82.029975     -5.2100737      40.887056     -1596.7805     -199.65902      21.026672    
   1289000   299.72376      0.89341744     0.70129153     1.594709       194.95878      105.66799      183.32786      117.3832      -49.91009      -44.326406     -1655.7188      57.350613      100.20243    
   1290000   299.9635       0.89413207     0.69909899     1.5932311      194.89975      105.65831      183.19112      258.0732       103.73997     -4.4735584     -1817.8974      59.925468      60.908589    
   1291000   300.90952      0.89695196     0.69845654     1.5954085      194.80785      105.71341      183.25853      237.31379     -31.945803      82.118563     -1567.9766      165.45598      11.487848    
   1292000   300.19311      0.89481648     0.69952398     1.5943405      194.94934      105.65437      183.38725     -273.6337       101.98825     -101.05389     -1475.9703     -26.916987      66.076098    
   1293000   300.02377      0.89431172     0.69893146     1.5932432      194.9231       105.71966      183.225        76.684943      28.420256      112.119       -1472.6739      71.203163      60.643954    
   1294000   300.01571      0.8942877      0.7000702      1.5943579      194.93133      105.63529      183.36623     -197.98156      183.11565      223.74875     -1638.7327      108.07096     -16.595034    
   1295000   299.8852       0.89389865     0.70181183     1.5957105      195.00882      105.69355      183.30325      1.2673362     -206.31365     -67.04066      -1401.149      -34.806105     -31.088569    
   1296000   299.85066      0.8937957      0.69972129     1.593517       194.87729      105.6629       183.32429      250.68908     -243.20749     -74.153565     -1676.5088     -36.228105     -3.6106021    
   1297000   299.13777      0.89167072     0.69974517     1.5914159      194.88922      105.70199      183.32668     -172.63158      59.135378     -105.73074     -1511.3143     -101.47655     -63.101211    
   1298000   300.42558      0.89550943     0.69992293     1.5954324      195.07167      105.61573      183.39435     -66.79613       41.588395      5.4920208     -1544.6572     -61.813651      127.35161    
   1299000   299.94102      0.89406506     0.70037705     1.5944421      194.87853      105.72409      183.33708     -287.59663     -209.8218      -4.4352844     -1589.6183     -11.983108      54.123823    
   1300000   300.61776      0.89608227     0.70056418     1.5966465      195.10498      105.6192       183.37016      55.143349      53.652492     -168.31007     -1684.4322     -50.53188       23.230268    
   1301000   300.26004      0.89501599     0.701407       1.596423       194.93974      105.66369      183.40543     -155.70775      29.116694      172.44767     -1704.6823     -5.7428445      122.55145    
   1302000   299.97356      0.89416206     0.70007689     1.5942389      195.05458      105.64485      183.38534     -94.094419     -177.29215     -60.130194     -1862.5181      19.661946     -86.20963     
   1303000   299.82186      0.89370984     0.69990868     1.5936185      195.01577      105.63476      183.2201      -159.17431     -274.95764      62.664975     -1387.7248      50.990961     -12.604203    
   1304000   299.96103      0.89412471     0.69998656     1.5941113      195.03735      105.68352      183.33577     -85.557044     -273.77203      26.529907     -1532.05       -78.84517       100.21054    
   1305000   299.7638       0.89353678     0.70078484     1.5943216      194.98316      105.63684      183.47083      202.98004     -225.03309      20.547709     -1508.6401     -25.295412     -123.134      
   1306000   300.38968      0.89540243     0.70113654     1.596539       195.06558      105.66559      183.23229      215.76607      51.808533      242.42583     -1745.9504     -72.951073      55.2555      
   1307000   300.78915      0.89659316     0.69748331     1.5940765      195.10684      105.64499      183.3037       103.69984     -209.68549     -56.76329      -1695.1545      20.503018      108.68534    
   1308000   300.21009      0.8948671      0.70090675     1.5957739      195.15377      105.61323      183.39221      181.12072     -70.978164      50.89964      -1585.851       117.64495     -4.5260424    
   1309000   300.0296       0.89432911     0.69964903     1.5939781      195.06684      105.59027      183.44011      109.5747       168.72059     -129.62499     -1673.6537     -76.885721      114.06159    
   1310000   299.97346      0.89416173     0.69936295     1.5935247      195.04522      105.67906      183.31429      248.23258      129.62737      39.112841     -1677.6724     -142.88586      89.961938    
   1311000   299.99219      0.89421756     0.69873464     1.5929522      194.98875      105.66292      183.4104       105.73497      22.330523      143.9191      -1671.4385      68.670117      12.810846    
   1312000   300.30426      0.89514779     0.70097213     1.5961199      194.91492      105.63867      183.40095      12.271126      18.949575      88.441093     -1433.5951      5.3577735      170.75767    
   1313000   299.84519      0.8937794      0.7002682      1.5940476      195.04605      105.59167      183.38568      8.9587609      204.09878      59.480791     -1406.9866      31.171986      33.346541    
   1314000   300.17346      0.89475791     0.70117116     1.5959291      195.08698      105.59336      183.2692       107.59775     -136.8069       31.596353     -1719.2546     -35.976858     -105.91743    
   1315000   299.62222      0.89311476     0.70036842     1.5934832      195.03473      105.57232      183.46492      48.742179     -98.705818     -78.955593     -1587.1278     -35.578404     -55.223433    
   1316000   300.0671       0.89444088     0.69997256     1.5944134      194.96148      105.60925      183.41634     -50.59063      -108.53316      94.74553      -1706.3299     -43.445501      11.04887     
   1317000   299.80714      0.89366597     0.70163103     1.595297       195.10029      105.58658      183.43391     -102.85934     -46.896526     -86.632497     -1478.2372     -97.801241      110.81218    
   1318000   299.68674      0.8933071      0.70176908     1.5950762      194.95373      105.62204      183.36619     -108.3343      -368.42787     -111.37046     -1421.7675      121.22677      76.154873    
   1319000   298.71687      0.89041612     0.69865421     1.5890703      194.92153      105.56879      183.3377       28.847671      254.08864     -76.05514      -1508.0072      0.060871412    104.77817    
   1320000   299.9795       0.89417975     0.69736697     1.5915467      195.07089      105.53093      183.32021      69.066231      177.48989     -9.8520399     -1522.4266      32.597532      46.309744    
   1321000   300.10862      0.89456464     0.69961417     1.5941788      194.98679      105.56857      183.39641      381.71363      72.277607     -143.84349     -1756.4816     -56.44571       177.66956    
   1322000   299.72036      0.89340732     0.6983163      1.5917236      195.02864      105.47783      183.3556      -308.73312      109.06364      117.66115     -1510.4281      58.750097      71.067585    
   1323000   299.91849      0.8939979      0.6991672      1.5931651      194.84324      105.5595       183.41647      123.22764      401.2563       80.727281     -1416.045      -79.41777       48.946755    
   1324000   300.05599      0.89440775     0.69824799     1.5926557      194.91009      105.5491       183.41087     -363.59661     -78.700337     -92.278925     -1466.9299     -97.358083      7.778897     
   1325000   300.70479      0.89634171     0.69961474     1.5959565      194.99254      105.55806      183.3567       136.71546      52.995801      86.848524     -1335.2413      28.756532      106.30612    
   1326000   299.5898       0.89301814     0.69923375     1.5922519      194.94868      105.5327       183.37058      9.9063735      151.76517      176.44154     -1278.128       68.4565        198.17137    
   1327000   300.10511      0.89455418     0.69831732     1.5928715      194.87462      105.48529      183.45483     -147.08777     -12.74203      -46.691489     -1627.4725     -107.4112       2.6559518    
   1328000   300.12305      0.89460766     0.69601505     1.5906227      194.76222      105.47848      183.44995      12.858597     -61.115245      26.121534     -1730.8672     -116.38215      101.87433    
   1329000   300.56111      0.89591342     0.70051249     1.5964259      194.79226      105.49505      183.47755      217.13756     -168.7395      -26.11774      -1589.2621     -27.129326      80.133585    
   1330000   299.99093      0.89421384     0.69649366     1.5907075      194.82617      105.54577      183.47114      108.61211      25.022683      129.92163     -1508.2459      16.202267      67.16379     
   1331000   299.42901      0.89253886     0.69840249     1.5909414      195.02184      105.50524      183.45565     -42.71107       69.768797     -156.9191      -1542.8473     -54.427317      108.93896    
   1332000   300.61773      0.89608218     0.70022609     1.5963083      194.98851      105.53453      183.35015      319.09374      41.880332      59.057823     -1662.0181      64.696705      43.848804    
   1333000   300.57674      0.89596002     0.6980009      1.5939609      194.92482      105.47815      183.35965      262.35057      5.9725168      118.15531     -1334.144      -98.409617     -78.519659    
   1334000   299.79122      0.89361852     0.69982122     1.5934397      194.82999      105.50769      183.41926      23.836901      148.41458      36.996238     -1512.3175     -38.426831     -117.41848    
   1335000   300.17311      0.89475687     0.70039285     1.5951497      194.95622      105.48654      183.38127      120.42197     -248.67992     -153.91661     -1499.239      -4.7680923      38.588569    
   1336000   299.80629      0.89366344     0.69761057     1.591274       194.85313      105.5285       183.36891     -112.06024      376.03228     -52.893577     -1473.2659      83.126617      35.262318    
   1337000   300.03315      0.89433968     0.69865437     1.592994       194.89052      105.51055      183.43753      17.797541     -20.961305      158.99757     -1649.9381     -79.018326      140.76233    
   1338000   299.32696      0.89223466     0.69794847     1.5901831      194.90741      105.4786       183.43517      125.02039     -38.651638      71.948376     -1469.4418      38.957141     -92.126689    
   1339000   300.14657      0.89467775     0.6979611      1.5926389      194.89924      105.4546       183.36658      173.68631      198.67813     -37.640346     -1359.5043      32.674823     -78.436257    
   1340000   300.06021      0.89442033     0.69715867     1.591579       194.86119      105.48058      183.48282      324.64752      206.16898      128.38885     -1626.9263     -69.375549      120.13667    
   1341000   299.76398      0.89353732     0.69879615     1.5923335      194.93294      105.48242      183.34598     -218.72383     -274.74347      2.2263858     -1412.6293      62.290818      26.717832    
   1342000   299.71098      0.89337934     0.69881558     1.5921949      194.98248      105.48664      183.43692      0.44142326    -203.55896      149.52822     -1419.0971      105.81549      107.39066    
   1343000   300.4129       0.89547162     0.69642552     1.5918971      194.8938       105.47163      183.32965      97.088858     -423.65335      159.38088     -1458.8701     -107.92153     -68.564655    
   1344000   300.12376      0.89460975     0.69832649     1.5929362      194.85935      105.4073       183.44505      47.043691     -230.91624     -200.51133     -1510.0995     -88.822016      36.694091    
   1345000   300.22012      0.89489701     0.69826098     1.593158       194.87506      105.47625      183.47929     -26.564274     -319.58213     -249.41529     -1396.7249      42.772729      33.382165    
   1346000   299.61138      0.89308246     0.69571835     1.5888008      194.95978      105.46951      183.29967     -81.071462     -214.81575      363.78537     -1654.0796     -37.667898      65.098038    
   1347000   300.58313      0.89597905     0.69720141     1.5931805      194.92028      105.44858      183.39638      198.84895      467.74971     -215.23448     -1510.5715      81.669507      33.633155    
   1348000   300.17286      0.89475611     0.69804674     1.5928028      194.93978      105.41329      183.58039     -246.93735      303.31777     -191.44039     -1398.0072      134.02929      81.906396    
   1349000   299.78018      0.89358562     0.69553561     1.5891212      194.93533      105.40814      183.43736     -130.75978      248.87089     -84.808816     -1513.8743     -0.0314132      102.47872    
   1350000   299.6133       0.8930882      0.695399       1.5884872      194.96258      105.39533      183.49332      212.39002      197.07077      146.18286     -1434.6179     -126.22622      44.457805    
   1351000   299.61129      0.89308219     0.69747191     1.5905541      194.87314      105.46503      183.41335     -18.524042     -110.95572      78.426963     -1666.1519      137.2045      -35.464653    
   1352000   300.12012      0.8945989      0.69678961     1.5913885      194.85693      105.39319      183.4794       82.81583       161.95468      83.523354     -1501.006      -65.409133      29.497577    
   1353000   299.88904      0.8939101      0.69884066     1.5927508      194.86714      105.37643      183.51088      82.932502      74.078759      89.742107     -1604.8839     -155.30242     -8.792615     
   1354000   299.38501      0.89240768     0.69627986     1.5886875      194.95869      105.43138      183.37493     -255.03023      150.8507       34.782946     -1602.4704      64.839861     -57.146714    
   1355000   300.14464      0.89467201     0.69745167     1.5921237      194.89505      105.45692      183.42865     -84.887539     -18.784466      112.46683     -1549.1664      65.305434      109.61756    
   1356000   299.8872       0.89390461     0.6965291      1.5904337      195.02602      105.35133      183.43701      51.849428      258.13491     -13.684088     -1574.7972     -52.313056      195.72623    
   1357000   299.91405      0.89398466     0.69748887     1.5914735      194.99047      105.44044      183.49304     -136.09337      55.074576     -275.90344     -1639.9584      8.0767257      61.779173    
   1358000   300.07314      0.89445888     0.69709434     1.5915532      194.95515      105.45197      183.5929       152.21854     -165.74094      56.221917     -1628.485       20.613576      55.578569    
   1359000   299.43684      0.89256219     0.69750037     1.5900626      195.09919      105.35267      183.50008     -96.625931      49.094979      6.0457208     -1695.0604      56.865634      143.37537    
   1360000   300.67884      0.89626435     0.69818265     1.594447       194.99483      105.41052      183.44088     -35.114316      48.152849     -39.13295      -1411.1938      148.53234      113.63726    
   1361000   300.72373      0.89639816     0.6979198      1.594318       194.90171      105.4411       183.45815     -61.032338      127.89011      36.443342     -1646.0862     -29.692513      43.757854    
   1362000   300.08502      0.8944943      0.69890825     1.5934026      195.06019      105.3466       183.63207      131.72095      145.0371       81.493311     -1867.5413     -46.684812      10.645568    
   1363000   299.05691      0.89142968     0.69764084     1.5890705      194.91357      105.33858      183.60295     -23.685498      152.96918      46.606302     -1604.4354      20.199152      97.325597    
   1364000   299.51855      0.89280576     0.69803476     1.5908405      194.95441      105.36525      183.48772     -105.80679      386.04903     -167.966       -1372.0317     -50.265719      15.941618    
   1365000   300.34231      0.89526121     0.69566191     1.5909231      194.97541      105.36782      183.55846      312.47732      69.515175     -79.733453     -1637.3253      65.346986      5.408034     
   1366000   300.5174       0.89578312     0.69759389     1.593377       194.86809      105.41661      183.69362     -401.99328      221.38171     -161.46644     -1840.2145     -4.7745867      169.40835    
   1367000   299.6189       0.89310487     0.69780089     1.5909058      195.00652      105.39818      183.44434     -151.17884      47.0642        161.82893     -1601.8488      39.25918       160.80477    
   1368000   300.46481      0.89562637     0.697249       1.5928754      194.88448      105.41994      183.59565     -277.46562      10.155143     -137.84304     -1538.3725     -18.090731      75.579995    
   1369000   300.1369       0.89464893     0.69633881     1.5909877      194.87073      105.408        183.68487      143.65091     -141.03843     -45.448027     -1495.6299     -19.891896      83.737821    
   1370000   299.76025      0.89352622     0.69722693     1.5907532      195.06102      105.28742      183.60469      0.90599003    -250.93602     -60.875299     -1640.7858      11.158437      125.45338    
   1371000   300.07252      0.89445702     0.69728891     1.5917459      195.0004       105.37579      183.53745      21.792144     -159.88397     -58.061264     -1584.1662     -11.880615     -66.754252    
   1372000   300.10848      0.89456422     0.69898719     1.5935514      195.03388      105.46186      183.59333      98.041639     -34.707184     -173.05695     -1334.4945     -51.538025      71.013443    
   1373000   299.37045      0.89236428     0.69924709     1.5916114      194.92295      105.41396      183.529       -41.171605      15.843107     -50.918772     -1754.9197      19.345613     -30.693234    
   1374000   299.55338      0.89290956     0.69654056     1.5894501      194.96882      105.3926       183.65614      164.08        -10.275558      25.848891     -1691.0417     -10.70291       12.279677    
   1375000   300.38112      0.89537691     0.69706087     1.5924378      195.00485      105.36815      183.57154      14.169205     -160.10562      126.26803     -1718.9057     -55.27447      -23.992069    
   1376000   300.60588      0.89604685     0.70033995     1.5963868      194.96644      105.42844      183.54616     -68.484525     -90.222775     -120.51399     -1354.4478      8.8688425      29.951205    
   1377000   299.08822      0.89152303     0.69802494     1.589548       194.83926      105.478        183.59719      118.28835      42.834384      44.184054     -1831.062      -104.51942     -25.735606    
   1378000   300.0401       0.89436039     0.69750762     1.591868       194.92249      105.44138      183.62302      242.3945       403.75844      195.46077     -1625.3766      18.443409      69.513059    
   1379000   300.37602      0.89536169     0.69662389     1.5919856      195.03095      105.36968      183.61215     -222.65125     -71.348627      82.535177     -1787.8317      49.463737     -3.5339854    
   1380000   300.08266      0.89448726     0.69983358     1.5943208      194.93013      105.46467      183.50692      49.421539      131.27742      157.81191     -1438.9912      13.357065      195.95387    
   1381000   300.24914      0.89498349     0.69956685     1.5945503      194.93453      105.46047      183.53576      409.75358      173.91896      157.13694     -1685.2817     -30.827946      145.08395    
   1382000   300.17041      0.8947488      0.70032892     1.5950777      194.93919      105.48493      183.53215      93.812801      150.43669      86.774528     -1805.4087     -1.9698747      105.01157    
   1383000   299.39507      0.89243767     0.69762455     1.5900622      195.04658      105.42101      183.61611     -184.22102     -83.091387      20.108621     -1754.473       62.422946      20.271183    
   1384000   299.6002       0.89304913     0.697488       1.5905371      195.07561      105.42996      183.47503     -103.39837     -271.30069     -222.86719     -1643.8075      145.95589      2.7089875    
   1385000   300.09115      0.89451256     0.69886594     1.5933785      195.02453      105.41019      183.56557     -151.88992     -227.31064     -45.498498     -1667.0808     -29.065095      209.84124    
   1386000   299.66708      0.8932485      0.69795789     1.5912064      195.08831      105.43056      183.51829      308.27949     -20.335577      36.817851     -1619.797       105.29794      142.48035    
   1387000   299.76276      0.8935337      0.69869209     1.5922258      195.1423       105.42507      183.56528     -171.46607     -21.679714      220.72766     -1670.7787      80.862835     -25.434213    
   1388000   300.28769      0.89509841     0.69791188     1.5930103      195.01753      105.36076      183.52155      49.897896      203.41692     -69.256068     -1817.3077      111.72936      51.854522    
   1389000   299.95067      0.8940938      0.69968322     1.593777       195.13369      105.37242      183.52294      41.285745      207.82883     -40.370152     -1685.2261     -28.095792      153.79461    
   1390000   299.55722      0.89292103     0.70161493     1.594536       195.06073      105.44979      183.4841      -50.981314     -121.56839     -37.120935     -1634.5775      49.245949      172.48217    
   1391000   300.25309      0.89499527     0.69950534     1.5945006      195.06374      105.39489      183.62286      255.85759      346.03598      4.2765288     -1544.6367      128.55236      194.58656    
   1392000   299.87223      0.89386001     0.69794324     1.5918032      194.97389      105.38918      183.49877     -60.077448      210.43748     -56.743754     -1694.0471     -178.50099      87.65049     
   1393000   299.58716      0.89301028     0.696479       1.5894893      195.01422      105.34331      183.56418      256.48745      288.34105     -107.14089     -1708.5117     -60.16373       75.325374    
   1394000   300.17554      0.89476412     0.70014015     1.5949043      195.07928      105.44196      183.54836     -224.32591      108.50319     -215.99214     -1770.314      -1.6985411      61.61808     
   1395000   299.5311       0.89284316     0.69908334     1.5919265      195.27341      105.42824      183.43605      229.98936      317.47287      138.47634     -1755.3664     -63.26539       52.7174      
   1396000   300.07455      0.89446308     0.70006927     1.5945323      195.12114      105.4315       183.54583     -41.959071     -28.942579     -71.024217     -1451.0721     -38.836819      29.778691    
   1397000   300.32684      0.8952151      0.70021102     1.5954261      195.1763       105.41104      183.58043     -69.070195      33.368093     -100.03735     -1379.9661      7.7952311      5.9889759    
   1398000   299.8437       0.89377496     0.69987083     1.5936458      195.17397      105.45546      183.57287      198.10889      412.77525      271.85469     -1769.6287      101.26127      77.555261    
   1399000   299.65991      0.89322712     0.69796722     1.5911943      195.15832      105.40386      183.57791      42.845142      90.378155     -109.95903     -1733.4354      1.3013972      89.856247    
   1400000   300.0833       0.89448915     0.70230275     1.5967919      195.13403      105.48535      183.60696      230.21762     -148.37249      138.10337     -1983.3727      36.655267      191.24459    
   1401000   299.98662      0.89420098     0.69956915     1.5937701      195.32754      105.45959      183.71633     -136.40796      44.440588     -225.44227     -1603.9759      28.901489      37.956521    
   1402000   299.85179      0.89379908     0.70015438     1.5939535      195.32346      105.4228       183.5942      -238.83659      24.495494      1.7466559     -1802.2752      20.843434      7.0695116    
   1403000   299.63122      0.89314159     0.70017824     1.5933198      195.18426      105.42847      183.54958      341.54065      13.169947      90.650049     -1881.6105      39.960753     -1.2303451    
   1404000   299.66615      0.89324571     0.70041309     1.5936588      195.21979      105.48652      183.51032      134.05765     -54.032194     -21.831835     -1716.3981      6.0813231      37.774577    
   1405000   299.57528      0.89297486     0.70058047     1.5935553      195.37883      105.39434      183.57108     -61.450016     -132.82724     -97.037242     -1571.9115      65.125712      55.676493    
   1406000   299.76964      0.89355421     0.70186395     1.5954182      195.35358      105.46256      183.56287      212.96413      268.16414      115.77564     -1631.9341      57.738799      114.30853    
   1407000   300.36358      0.89532462     0.69824332     1.5935679      195.23648      105.41848      183.5698      -57.853325     -123.57245      4.5050597     -1755.4905     -101.76889      31.992356    
   1408000   300.03147      0.89433468     0.6999409      1.5942756      195.28067      105.4033       183.53293     -547.04977     -171.55301     -44.648996     -1775.8804      87.194891      238.88506    
   1409000   299.79365      0.89362577     0.70063613     1.5942619      195.29212      105.44813      183.44051      285.96805      309.25546      219.53785     -1745.4459     -30.240134      23.933724    
   1410000   300.64609      0.89616671     0.69979887     1.5959656      195.22132      105.50596      183.5339      -77.355591      304.32119     -92.511207     -1876.6889      133.56913     -10.798143    
   1411000   299.30977      0.89218343     0.70077619     1.5929596      195.12565      105.46465      183.55846      32.053755     -221.11017     -150.82277     -1721.9224     -79.81877       171.92107    
   1412000   300.22687      0.8949171      0.69912517     1.5940423      195.33506      105.39746      183.50658     -88.63172       155.65227     -56.026037     -1796.0473     -2.9289912      154.46755    
   1413000   299.99712      0.89423227     0.69896669     1.593199       195.28905      105.4968       183.38977      109.07428     -18.712783      175.25844     -1868.44        46.666304      180.20805    
   1414000   299.46706      0.89265226     0.70162191     1.5942742      195.40095      105.45826      183.59442      135.26365     -237.08242      66.552169     -1601.7531     -23.940011      74.6557      
   1415000   299.51196      0.89278612     0.7015384      1.5943245      195.32219      105.4739       183.64967      169.87086     -320.14587     -131.12228     -1854.4926      119.13467      47.816745    
   1416000   299.72446      0.89341953     0.69996459     1.5933841      195.36394      105.3977       183.65034      293.25747      307.74162     -25.841615     -1665.0334     -124.74609      12.782155    
   1417000   300.46404      0.89562408     0.69973847     1.5953625      195.26992      105.5048       183.56105     -140.72733     -223.24459      9.3835945     -1628.5896      19.210985     -158.68256    
   1418000   299.90565      0.89395961     0.70178883     1.5957484      195.47152      105.42084      183.57583      81.208505      203.40082     -32.018424     -1564.6008      94.860786      75.922695    
   1419000   299.65771      0.89322056     0.69872827     1.5919488      195.40286      105.48603      183.50531      89.572482     -22.002447     -7.2422779     -1648.8331     -141.47913      59.249516    
   1420000   300.04494      0.89437482     0.70205873     1.5964336      195.38036      105.44312      183.55042      147.95274     -47.049634     -161.40849     -1543.8092      90.648316      47.08801     
   1421000   299.90771      0.89396577     0.69892902     1.5928948      195.47807      105.42577      183.3616       103.95281     -26.875225     -17.210859     -1792.5642      6.7862002      90.015701    
   1422000   300.2396       0.89495505     0.6988515      1.5938066      195.4712       105.46737      183.4322      -128.68499     -270.82176      97.554274     -1693.924       116.00175      59.142174    
   1423000   299.92373      0.89401353     0.70061917     1.5946327      195.39286      105.46285      183.57189     -31.090244     -371.34566      34.50551      -1844.3231     -16.338668      148.66266    
   1424000   300.47035      0.89564288     0.70062558     1.5962685      195.51875      105.49391      183.47194     -176.96905     -74.172341     -95.573579     -1708.3887     -79.458551      46.571552    
   1425000   299.85002      0.8937938      0.70076673     1.5945605      195.40021      105.48698      183.52423      166.8155       319.59517      198.59484     -1709.5396      25.995822      165.17784    
   1426000   300.09024      0.89450985     0.70111189     1.5956217      195.44813      105.48299      183.4392       128.82849     -179.58731      329.69658     -1879.0171      19.551947     -13.2574      
   1427000   299.94928      0.89408967     0.70333276     1.5974224      195.56655      105.47425      183.62247     -9.0185848     -157.30086     -143.51276     -1986.7689     -151.80225      132.54354    
   1428000   299.93355      0.89404279     0.7014638      1.5955066      195.45978      105.5284       183.53032      1.7854963     -345.66118      143.0244      -1732.5309      16.206505      62.803613    
   1429000   300.11476      0.89458293     0.6998799      1.5944628      195.39906      105.49753      183.51175      48.970933      3.6086351      46.902144     -1842.4896     -53.51515       8.8319611    
   1430000   299.99765      0.89423386     0.70296441     1.5971983      195.4937       105.47493      183.4788       177.98902      101.18792      208.57809     -1708.259       40.243113     -105.34089    
   1431000   299.37612      0.8923812      0.7020743      1.5944555      195.42338      105.55734      183.53421     -20.801159     -313.38261     -143.45977     -1748.7299     -7.9021608      160.26046    
   1432000   300.20878      0.89486319     0.69952705     1.5943902      195.54222      105.46341      183.44368      118.89431     -70.310506      17.541599     -1892.7001     -51.029506      117.91423    
   1433000   299.5554       0.89291558     0.70133551     1.5942511      195.52115      105.42967      183.58842     -26.391837      92.399944     -88.82725      -1649.4952     -47.126424     -2.1431143    
   1434000   300.137        0.89464924     0.70256306     1.5972123      195.49544      105.46902      183.49808     -15.869684     -150.00739     -71.809893     -1738.4323     -45.503881      6.2518583    
   1435000   300.41426      0.89547569     0.6997882      1.5952639      195.47457      105.47771      183.46014      199.46851      222.07921      127.0838      -1505.4513      167.80648      166.25516    
   1436000   299.68424      0.89329964     0.70199322     1.5952929      195.69921      105.45848      183.5749      -302.85485      147.11        -15.193986     -1779.7452      83.787323      142.93093    
   1437000   299.16071      0.89173911     0.69987389     1.591613       195.54811      105.42629      183.52085      132.09846      166.1798       99.587709     -1517.8717     -4.7160166      199.12978    
   1438000   299.55382      0.89291088     0.70138983     1.5943007      195.56795      105.48202      183.46402      136.83561     -137.89915     -84.011572     -1679.3042     -36.504728      35.889538    
   1439000   299.88081      0.89388558     0.70024388     1.5941295      195.52267      105.43914      183.53884      24.27832      -60.21464      -104.65606     -1673.1459      36.387169      170.12059    
   1440000   299.9119       0.89397826     0.70084419     1.5948225      195.57434      105.46943      183.51722      77.619098      231.03381     -174.76326     -1484.6623     -30.891997      87.435036    
   1441000   299.76751      0.89354784     0.69940766     1.5929555      195.60503      105.47014      183.45419     -192.99821      17.286444      38.625605     -1742.3976      117.25914      240.98112    
   1442000   300.52239      0.89579799     0.69971108     1.5955091      195.46462      105.51979      183.41156     -43.063239      123.9832       117.76311     -1632.5107      179.32537      106.11103    
   1443000   300.41082      0.89546545     0.70002458     1.59549        195.51708      105.45411      183.37348     -65.209019      111.47283     -7.8279876     -1883.1353      49.400757      58.581679    
   1444000   300.27505      0.89506074     0.70170483     1.5967656      195.55367      105.37387      183.68066     -220.57725     -60.304054     -194.7438      -1505.6521      106.09698      17.64403     
   1445000   299.689        0.89331383     0.70053391     1.5938477      195.45709      105.47272      183.53808      21.760805      146.31621     -57.796688     -1704.1902      109.25548      128.21841    
   1446000   299.83828      0.89375881     0.70338686     1.5971457      195.62128      105.4104       183.47468      16.064208      17.513798      243.54441     -1771.2583     -77.143186      76.96411     
   1447000   299.48608      0.89270896     0.70456909     1.597278       195.55245      105.44193      183.49899     -137.35526      26.241909     -229.25429     -1652.7317      149.77087      199.70193    
   1448000   300.09259      0.89451684     0.70112215     1.595639       195.51586      105.46515      183.59218      115.13161     -72.886037      150.11515     -1680.1613      120.10553      19.136395    
   1449000   299.87402      0.89386535     0.69987053     1.5937359      195.50099      105.41439      183.53825     -95.770561      44.003107      102.15176     -1767.5235      27.827424      114.26892    
   1450000   299.63659      0.89315761     0.69920532     1.5923629      195.53583      105.38283      183.36325     -353.28053      12.02329       117.62424     -1784.1169     -43.463928      43.910329    
   1451000   300.26067      0.89501787     0.70074659     1.5957645      195.56806      105.3997       183.5174      -204.79993     -204.93037     -147.41752     -1474.729      -204.34117      174.70423    
   1452000   300.2758       0.89506295     0.70263305     1.597696       195.40924      105.42893      183.57935      105.31993      241.61315     -214.9568      -1696.7078     -66.278754      191.71539    
   1453000   300.07001      0.89444954     0.70152617     1.5959757      195.46316      105.43         183.60434      225.38948     -6.4292494      17.995832     -1618.1397      85.491475      137.72867    
   1454000   300.0853       0.89449512     0.70154486     1.59604        195.60589      105.46021      183.59093     -159.28789     -34.812814     -40.269073     -1625.7956     -114.68537      50.437972    
   1455000   299.82208      0.89371051     0.70032905     1.5940396      195.43634      105.41431      183.50519      101.90823     -33.919103     -73.428906     -1832.7248      24.276951      197.53878    
   1456000   299.61093      0.89308112     0.70212717     1.5952083      195.56429      105.41214      183.6039       156.70935      83.367872      7.838488      -1717.5428     -8.6148144      112.78591    
   1457000   299.70464      0.89336044     0.70067337     1.5940338      195.42961      105.45163      183.59496     -189.87921      55.656507     -92.950947     -1673.3695     -185.7938       205.70707    
   1458000   299.77632      0.89357412     0.69927597     1.5928501      195.55785      105.40711      183.58691     -93.505606     -388.64003      25.188118     -1613.3536      107.97428      40.11945     
   1459000   300.37126      0.89534751     0.70072349     1.596071       195.55834      105.35975      183.58174      22.775442      332.15057      65.124748     -1518.7959     -29.033392      116.71885    
   1460000   300.51656      0.89578061     0.70248277     1.5982634      195.40323      105.42352      183.67476      180.76483     -91.492832     -118.79277     -1735.4759      69.518086      61.146115    
   1461000   299.3329       0.89225235     0.70094727     1.5931996      195.54111      105.46953      183.53754      87.592159     -38.161225      120.51481     -1856.3067      34.418436      125.19512    
   1462000   299.91998      0.89400234     0.69994864     1.593951       195.49704      105.39811      183.58344     -158.97345     -8.0316458     -42.675031     -1614.9273      113.50106      176.70723    
   1463000   300.13668      0.89464826     0.70221865     1.5968669      195.39665      105.51594      183.66286     -80.039941     -63.696654     -283.22534     -1762.8033      183.52438      201.68991    
   1464000   299.8079       0.89366826     0.7004         1.5940683      195.579        105.40949      183.48899      48.435546     -51.783636      167.71486     -1941.33        84.186149      123.29035    
   1465000   300.15057      0.89468969     0.7013567      1.5960464      195.4192       105.48631      183.57494      50.950469     -134.33617     -129.15372     -1699.7376      70.491485      177.16213    
   1466000   300.50159      0.895736       0.70152788     1.5972639      195.52163      105.42989      183.55188      225.81563      118.84905     -145.648       -1643.9915      2.1476736      93.027408    
   1467000   299.81288      0.89368308     0.70223364     1.5959167      195.63486      105.38547      183.60888      185.76395      117.09998     -95.219022     -1684.2448     -74.538904      127.77505    
   1468000   300.22789      0.89492017     0.69963745     1.5945576      195.40739      105.46335      183.60278     -155.57922     -24.834237     -54.811239     -1862.0424      50.576154      138.18047    
   1469000   300.88407      0.89687608     0.70273997     1.5996161      195.35431      105.46046      183.80307      19.165624     -324.30104      61.914439     -1737.0395     -21.021619      315.01064    
   1470000   299.87386      0.89386487     0.70250532     1.5963702      195.55347      105.40902      183.55348      39.526607     -113.05991      132.92964     -1810.4166     -91.831284      110.12879    
   1471000   299.96893      0.89414826     0.70039116     1.5945394      195.45293      105.40596      183.63205      160.85823      213.28187     -132.53339     -1818.5985     -43.937282      116.58936    
   1472000   300.23193      0.89493219     0.6998551      1.5947873      195.55019      105.39608      183.57352     -49.656863      150.54246      279.1925      -1676.8085     -59.763017      174.69956    
   1473000   299.67843      0.89328233     0.70466332     1.5979456      195.4651       105.53115      183.55831     -178.5904      -208.12172     -192.26628     -1823.9627      80.96791       39.881495    
   1474000   300.29337      0.89511535     0.70021649     1.5953318      195.50717      105.41188      183.59392     -206.45752     -374.45808     -160.50728     -1882.4015     -136.72131      34.907822    
   1475000   299.99219      0.89421758     0.69983439     1.594052       195.48964      105.44179      183.70995      188.39031      363.83079      2.2397411     -1752.5889     -144.52092      170.64061    
   1476000   300.25536      0.89500203     0.70178683     1.5967889      195.63155      105.43137      183.66127     -1.4686367     -25.570842      10.087628     -1443.6344      9.8780769      48.339962    
   1477000   300.1585       0.89471332     0.70186106     1.5965744      195.4163       105.43151      183.63909      56.472702     -4.8733672      49.724082     -1942.6815      19.326198      75.789314    
   1478000   300.28274      0.89508364     0.70183633     1.59692        195.43268      105.41546      183.64663     -179.49204      211.75908     -70.995812     -1925.2757     -118.29483      76.95822     
   1479000   300.29554      0.8951218      0.69989059     1.5950124      195.52843      105.41578      183.70014      203.0725      -7.3162113     -187.97296     -1524.5362      216.06769      205.84004    
   1480000   299.95346      0.89410212     0.70060816     1.5947103      195.45164      105.44549      183.6545       106.20297     -217.35302     -41.926626     -1639.8481     -29.55755       59.085568    
   1481000   299.93991      0.89406173     0.70105705     1.5951188      195.5193       105.39604      183.73936      86.147676     -74.663971     -294.56609     -1760.6559     -62.811618      40.094903    
   1482000   300.01808      0.89429474     0.70136997     1.5956647      195.50535      105.40788      183.71764     -239.97404     -205.30928      26.676706     -1368.6328     -23.331691      139.86617    
   1483000   299.44109      0.89257486     0.70398047     1.5965553      195.53104      105.41368      183.7383      -50.539079      129.0022       1.5045859     -1816.0019     -108.84323     -22.310815    
   1484000   300.29472      0.89511935     0.70038295     1.5955023      195.4485       105.46244      183.67178      49.506346     -19.163019     -32.066813     -1946.8571      64.039611      145.45031    
   1485000   300.02178      0.89430578     0.7024496      1.5967554      195.44431      105.40524      183.82584      38.145077     -101.46391     -118.38009     -1740.6208     -5.9242465      49.968801    
   1486000   299.65189      0.89320322     0.70057599     1.5937792      195.53459      105.37948      183.65426      295.05171      270.03525     -54.19688      -2080.7115      136.16709      186.30054    
   1487000   299.83731      0.89375592     0.7010033      1.5947592      195.4886       105.4385       183.72086     -147.50777     -76.181871     -46.143407     -1677.3979      89.342019      141.92637    
   1488000   300.11651      0.89458816     0.70191597     1.5965041      195.5638       105.41509      183.67875     -81.023298      177.26855     -3.7475917     -1722.7195     -123.11426      15.613595    
   1489000   300.18798      0.8948012      0.70202949     1.5968307      195.5136       105.44198      183.77827     -119.19373     -280.72801     -155.34502     -1939.3635      110.39706      143.06733    
   1490000   300.45249      0.89558964     0.70159863     1.5971883      195.52576      105.4317       183.83125     -158.16057     -79.05445      -48.943532     -1869.9975      31.535352      95.954012    
   1491000   300.25699      0.8950069      0.69961932     1.5946262      195.51696      105.46042      183.57626      89.936907      222.73995      30.410095     -1777.8645     -11.711118      155.52749    
   1492000   300.02992      0.89433004     0.70065943     1.5949895      195.47327      105.50653      183.82529     -21.089792     -78.904405     -41.900341     -1766.2094      35.884474      110.19411    
   1493000   300.17412      0.89475987     0.70052438     1.5952842      195.29696      105.47685      183.71115      46.071943      393.14433      46.10514      -1760.72       -16.60782       211.60748    
   1494000   300.23142      0.89493067     0.70276783     1.5976985      195.52243      105.45872      183.72444      378.30881     -194.97303     -1.0548952     -1849.9129     -39.497444      223.96612    
   1495000   299.88581      0.89390048     0.70122097     1.5951215      195.47147      105.48719      183.7187      -152.74236      168.98886      147.51837     -1744.5579      87.667677      99.562148    
   1496000   300.13078      0.89463069     0.70250749     1.5971382      195.50409      105.44549      183.77711     -245.32321     -19.607006     -84.251068     -1831.3324     -7.6440175      175.90172    
   1497000   300.2585       0.89501141     0.70226326     1.5972747      195.5275       105.42045      183.67807      131.28066      32.15776       1.6560372     -1887.5689      5.1105866      293.03759    
   1498000   300.24041      0.89495749     0.70248235     1.5974398      195.53804      105.48291      183.56978      82.711937     -215.30807     -102.02358     -1831.0967      34.912804      143.42115    
   1499000   299.66861      0.89325306     0.70138726     1.5946403      195.50316      105.49712      183.72072      270.50215      300.75413     -158.1223      -1766.9372      64.1742        134.92585    
   1500000   300.1898       0.89480661     0.70288446     1.5976911      195.42935      105.48832      183.82837      227.63241      191.8911      -216.2772      -1896.2417     -116.29144      17.038875    
Loop time of 23606 on 256 procs for 1500000 steps with 414720 atoms

Performance: 5.490 ns/day, 4.371 hours/ns, 63.543 timesteps/s, 26.353 Matom-step/s
99.4% CPU use with 256 MPI tasks x no OpenMP threads

MPI task timing breakdown:
Section |  min time  |  avg time  |  max time  |%varavg| %total
---------------------------------------------------------------
Pair    | 9966.1     | 10225      | 10473      |  80.8 | 43.32
Bond    | 451.16     | 460.4      | 476.88     |  20.6 |  1.95
Kspace  | 3395.1     | 3791.4     | 4150.5     | 256.0 | 16.06
Neigh   | 4977.4     | 5107.6     | 5214.8     |  91.0 | 21.64
Comm    | 2335.9     | 2702       | 3210.1     | 425.5 | 11.45
Output  | 1.211      | 4.1967     | 4.4881     |  12.8 |  0.02
Modify  | 982.23     | 1159.1     | 1269       | 226.2 |  4.91
Other   |            | 156.2      |            |       |  0.66

Nlocal:           1620 ave        1674 max        1566 min
Histogram: 9 12 19 31 45 63 42 18 12 5
Nghost:        8613.25 ave        8847 max        8338 min
Histogram: 2 3 16 40 59 48 28 31 19 10
Neighs:         373319 ave      390460 max      351331 min
Histogram: 3 6 17 16 55 39 66 30 18 6

Total # of neighbors = 95569569
Ave neighs/atom = 230.4436
Ave special neighs/atom = 9.4
Neighbor list builds = 207165
Dangerous builds = 27
unfix           3

#======================== unload
variable 	yz_new		equal	yz
variable	yz_nn		equal	${yz_new}
variable	yz_nn		equal	-6.37171722014404
variable	difference	equal	${yz_nn}-${yzzo}
variable	difference	equal	-6.37171722014404-${yzzo}
variable	difference	equal	-6.37171722014404--6.30576165965616
variable	ratio		equal	v_difference/v_yz_nn
variable	srate2		equal	v_ratio/${steps}
variable	srate2		equal	v_ratio/1500000
print "yz ${yz_nn}"
yz -6.37171722014404
print "strainrate ${srate2}"
strainrate 6.90086708800813e-09


#fix             4 all deform 1 yz erate -${srate2} units box remap x
fix             4 all deform 1 xy erate -${srate} units box remap x flip no
fix             4 all deform 1 xy erate -2e-07 units box remap x flip no
run             ${steps}
run             1500000
PPPM initialization ...
  using 12-bit tables for long-range coulomb (../kspace.cpp:342)
  G vector (1/distance) = 0.29202899
  grid = 32 32 60
  stencil order = 6
  estimated absolute RMS force accuracy = 4.7494128
  estimated relative force accuracy = 0.014302715
  using double precision KISS FFT
  3d grid and FFT values/proc = 2310 256
Generated 3 of 3 mixed pair_coeff terms from arithmetic mixing rule
Per MPI rank memory allocation (min/avg/max) = 18.59 | 18.6 | 18.6 Mbytes
   Step          Temp          KinEng         PotEng         TotEng           Lx             Ly             Lz            Pxx            Pyy            Pzz            Pxy            Pxz            Pyz      
   1500000   300.1898       0.89480661     0.70288445     1.5976911      195.42935      105.48832      183.82837      227.6324       191.89109     -216.27729     -1896.2194     -116.29099      17.038351    
   1501000   299.7908       0.89361727     0.7043732      1.5979905      195.62086      105.45978      183.64265     -63.549798     -345.69002      19.283793     -1733.0819      25.393297      48.039601    
   1502000   300.45046      0.89558359     0.70061134     1.5961949      195.43427      105.4439       183.70114     -250.42575      205.68963     -50.017024     -1806.3145     -21.004265      36.816611    
   1503000   300.93567      0.8970299      0.70178283     1.5988127      195.52517      105.46747      183.69581     -43.73429      -68.946844      16.231739     -1642.7244     -106.82957      174.89724    
   1504000   299.73316      0.89344546     0.70275043     1.5961959      195.41715      105.4788       183.63952      181.11214      351.82642      163.07706     -1969.3749     -84.859525      97.509027    
   1505000   299.66918      0.89325476     0.70355136     1.5968061      195.46592      105.55411      183.80546      91.700428     -162.76398     -83.36624      -1766.6258      52.873633      215.24119    
   1506000   299.723        0.89341519     0.70359111     1.5970063      195.53118      105.48049      183.81032      106.30892      153.68698      56.776033     -1854.0103     -66.360455     -59.93106     
   1507000   300.44924      0.89557996     0.70442371     1.6000037      195.34589      105.5612       183.74061      240.59941      327.89267     -128.87691     -1897.2147      23.697089      108.67969    
   1508000   299.61657      0.89309794     0.70351645     1.5966144      195.3307       105.51363      183.87818      30.744575      124.69568     -156.31055     -1735.7083      12.954843      77.999738    
   1509000   300.12432      0.89461144     0.70218871     1.5968001      195.42163      105.43989      183.64179     -299.3559      -126.70854     -27.442674     -1608.4583      62.277192      268.70439    
   1510000   299.29929      0.89215218     0.70162557     1.5937777      195.35521      105.51332      183.75765      159.4933       28.410113      50.789087     -1813.0776     -140.80144      105.36178    
   1511000   300.12596      0.89461632     0.70128569     1.595902       195.41206      105.43781      183.6511      -102.98983      117.46235      133.67105     -1649.8588      13.627855      58.806401    
   1512000   300.58541      0.89598586     0.70060425     1.5965901      195.39627      105.49059      183.78628     -18.542227      227.61906     -129.23446     -1583.7128     -6.5227919      267.58317    
   1513000   300.43232      0.89552951     0.7024787      1.5980082      195.46895      105.50842      183.71277     -234.2764      -302.27721     -33.922959     -1655.1232      131.46014      47.208089    
   1514000   299.39743      0.89244471     0.70237059     1.5948153      195.38808      105.43869      183.79455     -135.89476      239.23172      25.75063      -1690.3803      106.17789      119.80069    
   1515000   300.5438       0.89586181     0.70261549     1.5984773      195.32527      105.50779      183.77951     -151.12403      9.4101599     -83.63155      -1413.3248     -14.438994      72.828973    
   1516000   299.77959      0.89358386     0.70050425     1.5940881      195.3335       105.40569      183.87198      88.28466       49.878988      100.93137     -1772.2164      64.486107      31.032557    
   1517000   300.25782      0.89500936     0.69927942     1.5942888      195.37257      105.46133      183.69919     -132.48417      133.3921      -22.737686     -1585.7641     -114.64355      35.531462    
   1518000   299.97208      0.89415763     0.70147889     1.5956365      195.26194      105.44967      183.82949      65.300601      91.65192       10.431893     -1403.3578      64.519751      166.78651    
   1519000   300.15754      0.89471047     0.70019031     1.5949008      195.2291       105.44782      183.85051      141.43937     -105.8162       258.00409     -1587.0965      104.022       -26.386184    
   1520000   299.978        0.89417528     0.69998608     1.5941614      195.13362      105.48952      183.81706     -93.79452       115.99437      186.67052     -1558.5045      26.825748      123.02307    
   1521000   300.67911      0.89626514     0.70143657     1.5977017      195.1331       105.46055      183.90991     -72.326064     -288.36204     -212.96763     -1657.0199     -25.641482      183.92198    
   1522000   299.85419      0.89380624     0.70180498     1.5956112      195.21384      105.46588      183.83206     -79.969179     -261.49347      42.602781     -1550.4908     -4.9376959      159.1205     
   1523000   299.85021      0.89379436     0.69897925     1.5927736      195.23319      105.42715      183.7657       562.88858      200.06178      117.02426     -1645.8791      95.641562      178.68409    
   1524000   299.68377      0.89329823     0.70078132     1.5940796      195.25537      105.43263      183.71162     -96.175767      50.820364     -50.593999     -1665.1346      7.5771349      137.65093    
   1525000   299.96206      0.89412777     0.70010391     1.5942317      195.18893      105.36132      183.70151      442.8165      -8.6610688      106.07429     -1493.1102     -138.06974      110.98462    
   1526000   300.2263       0.89491542     0.70011716     1.5950326      195.09541      105.45173      183.76138      160.07161     -158.57417     -41.118613     -1553.6386      75.135415      198.14952    
   1527000   300.68525      0.89628345     0.70016528     1.5964487      195.17705      105.44817      183.71388      237.49315      29.231245     -15.54222      -1689.27       -74.894209      56.392118    
   1528000   299.76557      0.89354208     0.70146965     1.5950117      195.28378      105.3929       183.741        145.68267      87.018346     -50.816249     -1513.2234      21.882174      130.81803    
   1529000   300.13172      0.8946335      0.69976318     1.5943967      195.19128      105.4021       183.73624     -132.9367      -206.7921      -212.11852     -1315.1175     -1.2288905      158.05752    
   1530000   299.95613      0.89411008     0.69921456     1.5933246      195.03874      105.38811      183.73862     -17.667594     -341.39925      41.592694     -1585.5122      62.887507      74.519596    
   1531000   300.03631      0.89434908     0.69955696     1.593906       195.16169      105.40327      183.62821      280.66915     -52.101413      117.46476     -1433.6757     -132.00732      125.48271    
   1532000   300.45378      0.89559348     0.69866807     1.5942616      195.13805      105.3951       183.77739      63.263564      247.42688      72.727709     -1388.8157      51.343565      54.345414    
   1533000   299.94281      0.8940704      0.6992161      1.5932865      195.13334      105.39125      183.70203      47.310371      53.026968      132.40324     -1429.2167     -191.40748      73.832671    
   1534000   299.99257      0.89421872     0.69744063     1.5916594      195.14784      105.3745       183.67051      0.29774105     244.51378      49.780202     -1353.1411      37.19696       110.7202     
   1535000   299.91962      0.89400125     0.69970991     1.5937112      195.10914      105.39658      183.77089      239.59511     -53.841371     -6.2831421     -1545.6697      21.314119      124.90531    
   1536000   299.87921      0.8938808      0.70075343     1.5946342      195.21368      105.33723      183.9964      -51.790888     -304.63226     -187.54385     -1347.8873      55.127234      88.945505    
   1537000   299.72248      0.89341362     0.70061181     1.5940254      195.03777      105.38938      183.73405      0.5405503      34.933877     -175.18651     -1476.0821     -43.893257      111.30282    
   1538000   300.36623      0.89533253     0.69859615     1.5939287      195.01858      105.37835      183.89655      12.50939       283.46771     -117.94083     -1360.3736      39.198648      59.567883    
   1539000   299.91214      0.89397897     0.69812094     1.5920999      195.132        105.35848      183.77111     -19.01818      -5.815066      -15.462256     -1348.132       58.574364     -73.504507    
   1540000   300.19534      0.89482314     0.69966083     1.594484       195.11136      105.39512      183.67764     -182.55334     -53.043141      12.796        -1371.1043     -62.810918     -48.513418    
   1541000   299.40524      0.89246799     0.69952287     1.5919909      194.95424      105.43256      183.80647      242.73976     -345.06281      25.493033     -1237.3561      88.923008     -97.033396    
   1542000   299.52981      0.89283931     0.69879661     1.5916359      194.98087      105.3938       183.7707      -193.96821      185.98974      44.093569     -1413.8842     -47.790632     -20.940114    
   1543000   300.46333      0.89562196     0.69725407     1.592876       194.94698      105.35694      183.682        104.13409     -151.53777     -185.86981     -1461.7837     -66.667682      17.053713    
   1544000   299.83464      0.89374794     0.69760831     1.5913562      194.9657       105.41855      183.76774     -90.065971      327.00731      44.075215     -1277.6544     -9.0661196      61.657436    
   1545000   299.89136      0.89391701     0.6977108      1.5916278      194.95927      105.37108      183.76147     -0.2183411      150.74951      33.13275      -1301.2506      81.542566     -36.483881    
   1546000   299.7309       0.89343873     0.6977737      1.5912124      194.84162      105.43544      183.7127       350.64825     -92.998839     -28.980723     -1359.3203      24.849165      201.71456    
   1547000   300.29337      0.89511532     0.69870527     1.5938206      194.92613      105.39801      183.78092     -158.86761     -219.92663     -99.779048     -1532.3425      14.557491      212.42936    
   1548000   299.90427      0.8939555      0.69774022     1.5916957      194.84509      105.39728      183.78405      159.09715     -136.78842      104.94374     -1374.5574     -119.23337      83.339273    
   1549000   299.95731      0.89411359     0.69861685     1.5927304      194.7751       105.52032      183.71788     -68.330788     -326.38636     -77.073283     -1409.0659      44.989831      47.402861    
   1550000   300.04955      0.89438857     0.70022761     1.5946162      194.88076      105.3606       183.84884      109.31876      169.58055      50.065661     -1139.4151      61.597695      51.814003    
   1551000   299.6756       0.89327389     0.70041134     1.5936852      194.85776      105.34867      183.82732     -34.240111      179.53498      106.48882     -1580.4163      35.403078     -89.847199    
   1552000   300.12675      0.89461867     0.69898358     1.5936023      194.87703      105.40432      183.64896     -109.75447     -340.55044     -30.441293     -1242.4003      38.804297      158.68888    
   1553000   299.75711      0.89351686     0.69794832     1.5914652      194.82371      105.36823      183.82688     -49.261451     -13.731614      113.74206     -1429.7757      21.447188      49.469287    
   1554000   300.5785       0.89596526     0.69808433     1.5940496      194.82205      105.43113      183.71166      378.4102       201.86904      22.409411     -1143.4188      28.386007      238.88339    
   1555000   300.00551      0.89425729     0.69723727     1.5914946      194.86022      105.39865      183.88437      184.13768      229.5911      -148.90506     -1268.3574      53.944708      241.97073    
   1556000   300.16053      0.89471937     0.69923616     1.5939555      194.81011      105.29405      183.78537      176.64591      332.29729     -13.719236     -1195.55        112.33782      83.035033    
   1557000   300.74682      0.89646699     0.69789645     1.5943634      194.68425      105.40952      183.86433      98.956605      217.87139      102.1712      -1312.6132     -17.862356      57.779448    
   1558000   299.68114      0.89329041     0.69829279     1.5915832      194.68761      105.43169      183.74853     -10.043957     -19.363252     -9.2516041     -1126.6974     -27.090049      12.6518      
   1559000   300.63218      0.89612526     0.69782462     1.5939499      194.66005      105.39248      183.61995      53.722045     -29.171511      152.95536     -1172.3347      41.04351       32.483201    
   1560000   300.18637      0.89479638     0.69828594     1.5930823      194.7138       105.37206      183.88307     -36.821929      275.20708      92.945203     -1071.1091      75.275697      161.54499    
   1561000   299.5982       0.89304317     0.69799706     1.5910402      194.75191      105.39609      183.87759     -0.51095847    -31.601328      152.41124     -1324.098      -75.929465      83.346223    
   1562000   299.25636      0.89202421     0.69782995     1.5898542      194.77633      105.36218      183.83171     -82.638767      13.199923     -43.34726      -1069.1491     -64.01008       116.79342    
   1563000   300.15407      0.89470011     0.69627607     1.5909762      194.76724      105.32141      183.80842     -156.12125      36.306451      5.2515773     -1193.3257     -93.224589     -5.6300672    
   1564000   300.08596      0.89449707     0.69598444     1.5904815      194.51445      105.41893      183.6738       294.42416      156.33195      104.7023      -1189.8787      7.2368595      19.853128    
   1565000   299.59477      0.89303294     0.69709419     1.5901271      194.64         105.37436      183.85157     -50.101873      65.784434     -59.976181     -1180.7728      16.412745      154.7359     
   1566000   299.89371      0.89392403     0.698327       1.592251       194.54314      105.41209      183.73846     -111.96935     -11.485059     -91.142696     -1249.6383     -164.71965      26.526333    
   1567000   299.45478      0.89261566     0.69904849     1.5916641      194.5529       105.38438      183.66704     -12.087238     -272.27791      67.429163     -1177.0443     -30.133947     -8.3143717    
   1568000   299.28282      0.89210307     0.6992821      1.5913852      194.55131      105.43941      183.74864     -46.621795     -123.85768     -99.46914      -1352.6424      67.11425       81.379408    
   1569000   299.81433      0.89368742     0.69695318     1.5906406      194.60324      105.41795      183.65997      56.981915      415.71268      205.74281     -1212.7123     -55.724679     -9.7930211    
   1570000   300.22025      0.89489739     0.6943067      1.5892041      194.5531       105.40392      183.73557      80.846975      68.950964      102.69928     -1284.5883     -71.000631      176.71914    
   1571000   300.15434      0.89470091     0.69801796     1.5927189      194.47597      105.43692      183.81445     -78.201982      420.60372     -4.0968568     -1322.1233     -128.18076      76.011382    
   1572000   300.22498      0.89491148     0.69679033     1.5917018      194.55101      105.38719      183.74761      18.099288      114.05906      60.322169     -1262.6425     -60.636561      178.13548    
   1573000   300.19122      0.89481084     0.69401203     1.5888229      194.53298      105.3655       183.66473     -50.029366      35.794249      2.6391351     -1118.2666     -87.948208      202.30727    
   1574000   300.09776      0.89453226     0.69606713     1.5905994      194.50998      105.34807      183.89311      97.924247      136.42108     -7.5706795     -1219.6697     -105.38259      149.18434    
   1575000   299.55538      0.89291554     0.69541944     1.588335       194.49964      105.39922      183.6961      -208.35093     -62.250243      34.665619     -870.56124      12.988338      114.88522    
   1576000   300.25411      0.89499832     0.69568451     1.5906828      194.55687      105.38691      183.81561      295.34339      135.89953      39.825224     -1080.3212     -54.395094     -31.935815    
   1577000   299.91124      0.8939763      0.69562133     1.5895976      194.5034       105.37803      183.68203     -251.40171     -105.82491     -18.657554     -1246.3599      9.2442395      222.17434    
   1578000   299.88098      0.89388608     0.69616972     1.5900558      194.52723      105.38938      183.75746     -188.13391     -17.853259      90.967402     -1240.1433     -46.027097      136.74702    
   1579000   300.15725      0.89470959     0.69711006     1.5918196      194.36863      105.46619      183.7543       211.24262      13.136581      22.329121     -1148.0853      66.36055       150.97058    
   1580000   300.01188      0.89427626     0.69708974     1.591366       194.40531      105.36705      183.87504      39.053713     -103.31554      163.24891     -1114.2245     -13.0704        17.682667    
   1581000   300.12839      0.89462357     0.69714936     1.5917729      194.43452      105.38028      183.64605     -74.740383      144.78388      361.38271     -1159.6447     -41.914787     -28.194352    
   1582000   300.01956      0.89429918     0.69671868     1.5910179      194.35109      105.43287      183.67468      310.91302     -167.62554      63.540016     -1002.7053      17.846899      205.51867    
   1583000   300.27884      0.89507204     0.69742741     1.5924994      194.461        105.43121      183.82111     -190.04269      294.65329      6.1776369     -1074.3159     -3.1384782      44.775443    
   1584000   300.00133      0.89424483     0.69759169     1.5918365      194.4523       105.41447      183.75133      84.318453     -56.512842     -3.4198242     -1199.7782     -9.7133939     -75.503408    
   1585000   300.3495       0.89528266     0.69695487     1.5922375      194.37606      105.45942      183.65307     -98.533768      174.77193     -88.761911     -1025.5313     -3.874404       56.465467    
   1586000   299.9295       0.89403071     0.69474746     1.5887782      194.52807      105.3592       183.71947     -92.203054      205.45336     -6.9446415     -942.62234     -11.366463      140.14198    
   1587000   300.22102      0.89489967     0.69615682     1.5910565      194.31103      105.52401      183.72054      124.81996     -61.575886     -128.74039     -1033.4587     -19.416458      125.26286    
   1588000   300.61515      0.8960745      0.69597022     1.5920447      194.44964      105.42025      183.72035     -270.06085     -393.81013     -48.304092     -894.42427      112.73324      123.13396    
   1589000   299.34775      0.89229664     0.69450314     1.5867998      194.4227       105.41475      183.59138     -68.185959     -21.080935     -305.20317     -991.79286     -124.39984      55.024926    
   1590000   300.08634      0.89449824     0.69813472     1.592633       194.33016      105.45929      183.67112      33.001736     -69.062157     -40.447214     -1003.8951      28.889771      66.597597    
   1591000   300.3518       0.89528951     0.69640484     1.5916944      194.43711      105.37946      183.69515     -97.641804     -125.64703     -51.049407     -841.93759     -76.312028      39.295934    
   1592000   300.05879      0.89441609     0.69343523     1.5878513      194.35568      105.36913      183.60305     -142.85003     -22.031293      36.174172     -1075.9627     -93.08047       139.25567    
   1593000   299.86716      0.89384489     0.69453575     1.5883806      194.34382      105.40364      183.85429     -80.400858      107.1583      -189.98524     -987.02104     -23.94374       329.89968    
   1594000   300.26552      0.89503231     0.69428861     1.5893209      194.32875      105.38292      183.63208      108.57036      224.07217     -55.915198     -1073.6849      118.98385      198.64802    
   1595000   299.86599      0.89384139     0.69562745     1.5894688      194.44197      105.37116      183.81676      162.11828      185.01406     -54.629096     -896.58291     -9.5996288      92.391912    
   1596000   299.46886      0.89265762     0.69372667     1.5863843      194.31436      105.37747      183.65725      103.397        353.0624       60.944543     -755.75752      126.90983      197.17047    
   1597000   299.49705      0.89274166     0.695629       1.5883707      194.36221      105.35765      183.59011     -17.481288      43.443616      260.1824      -1061.6413      21.797645     -37.217292    
   1598000   300.22687      0.8949171      0.69790921     1.5928263      194.38922      105.42014      183.64517      314.92675     -119.18734      51.389862     -1033.2095      57.728442      10.850366    
   1599000   300.09924      0.89453669     0.69437643     1.5889131      194.32747      105.44902      183.59948      16.740873     -267.31062     -161.12155     -1018.676      -37.873996      149.43493    
   1600000   300.27676      0.89506582     0.69457727     1.5896431      194.41181      105.39834      183.56346     -257.57595      186.16785     -45.196987     -991.78259     -72.184016      27.295825    
   1601000   299.92303      0.89401143     0.69463638     1.5886478      194.39067      105.35184      183.65184     -181.46199      24.810949     -243.89649     -934.75731      53.063134      65.081299    
   1602000   300.48783      0.895695       0.69661351     1.5923085      194.43298      105.36628      183.50931     -78.567081      196.67872      245.57616     -812.82289      49.173918      200.3236     
   1603000   300.44947      0.89558065     0.69392194     1.5895026      194.35712      105.4216       183.47885     -57.016051     -215.19834     -229.83532     -646.57228     -25.153489      68.28275     
   1604000   300.39668      0.89542329     0.69394654     1.5893698      194.45977      105.3768       183.55473      224.25167     -71.823015      81.681024     -824.79694      55.419868      174.29427    
   1605000   300.37508      0.89535891     0.69653283     1.5918917      194.36626      105.40974      183.71505      20.26564      -211.10855     -295.88577     -693.01882     -44.137954     -46.598428    
   1606000   300.30195      0.89514092     0.6967092      1.5918501      194.39518      105.43086      183.61741     -197.69695     -218.17978     -10.962188     -886.24845      107.94394     -12.784103    
   1607000   299.56405      0.89294136     0.69211824     1.5850596      194.32261      105.37415      183.54325     -13.148189     -309.84849     -9.7849238     -733.13645      20.659628      118.25269    
   1608000   300.24661      0.89497596     0.69465017     1.5896261      194.44455      105.31785      183.64343     -42.097804      364.80659      116.84533     -859.53615      10.644451      132.90485    
   1609000   299.38338      0.89240283     0.69353675     1.5859396      194.30523      105.37445      183.64096      178.95899      175.98928     -44.618308     -678.05773     -76.281053      79.575406    
   1610000   299.75315      0.89350505     0.69292607     1.5864311      194.32071      105.33771      183.50757      143.51265      257.10579     -32.012754     -872.74035     -72.924396      116.76549    
   1611000   299.66         0.8932274      0.69379013     1.5870175      194.33986      105.34228      183.56059     -300.15153     -13.907244      41.336865     -815.06143      136.2509       109.34585    
   1612000   299.30555      0.89217083     0.69275604     1.5849269      194.22881      105.34356      183.47962     -350.17318      100.07425      14.585243     -771.30108      42.665938      93.207825    
   1613000   300.006        0.89425874     0.69371864     1.5879774      194.19386      105.37827      183.55524      1.1659754     -147.85033      28.093582     -662.67309     -9.9226698      13.008585    
   1614000   299.97729      0.89417316     0.69568861     1.5898618      194.28671      105.34208      183.62815      190.51796     -41.620653     -17.05498      -712.7071      -17.925971      56.807946    
   1615000   299.87395      0.89386514     0.69235303     1.5862182      194.15641      105.37172      183.62412     -14.468271     -187.59492      18.714597     -765.00404      161.35442     -87.758458    
   1616000   300.80224      0.89663217     0.69146382     1.588096       194.15389      105.32005      183.50593      162.05192      493.68049      50.438389     -830.21768     -22.142068      243.49397    
   1617000   299.48598      0.89270865     0.6915667      1.5842753      194.25808      105.32126      183.45669     -18.366639      11.502643     -120.36981     -565.86585      0.45429356     73.540823    
   1618000   299.77402      0.89356725     0.69480151     1.5883688      194.01555      105.34738      183.57608      94.358685      152.17276     -26.006844     -650.13307      132.49139     -19.343822    
   1619000   299.67951      0.89328553     0.69345535     1.5867409      194.16928      105.37529      183.66506     -56.947109     -154.01019     -223.21943     -791.61865      4.6559718      29.858289    
   1620000   300.31964      0.89519365     0.69209076     1.5872844      194.20088      105.40122      183.52768      171.89302     -46.423227      27.085288     -355.61493      28.196764      46.314343    
   1621000   300.24915      0.89498352     0.6923389      1.5873224      194.1737       105.40832      183.61517     -141.71988     -90.675427      45.622017     -897.41244     -62.297558      55.297799    
   1622000   300.17495      0.89476235     0.69147229     1.5862346      194.2096       105.37032      183.6469       289.27669      5.9340736      148.25629     -721.66801      50.118892      127.30895    
   1623000   300.02471      0.89431451     0.69111454     1.5854291      194.15158      105.34373      183.56448      238.36575      347.15953      134.43126     -638.91181      26.761037      28.870658    
   1624000   300.55996      0.89590999     0.69421222     1.5901222      194.10686      105.38444      183.66348      168.16105      53.521391      74.985991     -800.02649      121.71003     -83.126223    
   1625000   299.49938      0.8927486      0.69307529     1.5858239      194.16203      105.41633      183.48374      101.21844     -175.50889      115.24621     -762.08069      14.782734     -15.279114    
   1626000   300.19631      0.89482603     0.69302816     1.5878542      194.19525      105.34056      183.6094      -206.40104      13.67056      -83.621311     -628.2935       44.6665        123.3695     
   1627000   299.83979      0.89376329     0.69321579     1.5869791      194.12226      105.36892      183.5953      -214.50292      138.32867     -121.93405     -439.76095      21.207441      40.688195    
   1628000   299.9697       0.89415055     0.6938663      1.5880169      194.10327      105.41785      183.52818      1.2750465     -102.3762      -75.618903     -673.96804     -18.995868      151.54259    
   1629000   300.39472      0.89541744     0.69474586     1.5901633      194.24506      105.37673      183.50193     -66.42141      -369.09019     -30.998527     -803.60879     -16.22048       74.067525    
   1630000   299.94956      0.89409052     0.69325301     1.5873435      194.26141      105.33253      183.46275      55.157818      103.71901      38.069967     -615.70725      20.792893      182.74665    
   1631000   300.31282      0.89517332     0.69355884     1.5887322      194.21919      105.3906       183.56243     -72.476139      86.392827     -95.0105       -553.00828      70.942037     -18.61034     
   1632000   300.45036      0.89558329     0.69425213     1.5898354      194.16255      105.38443      183.56053      81.450538     -92.798267     -53.640624     -393.08689      28.961506      150.29411    
   1633000   299.87359      0.89386405     0.69366478     1.5875288      194.23003      105.35384      183.60145      206.43136     -45.036694      78.542681     -673.39689     -62.915966      4.2691356    
   1634000   299.79773      0.89363793     0.692407       1.5860449      194.16466      105.39024      183.53434      239.53026     -195.8575       71.089222     -580.82197     -39.737019      228.56485    
   1635000   299.82237      0.89371136     0.69198951     1.5857009      194.06485      105.335        183.59207     -372.23635     -238.2038       3.376156      -651.11506     -22.821228     -29.790133    
   1636000   299.79978      0.89364403     0.6918504      1.5854944      194.05319      105.35245      183.59071      455.37828      295.31071      288.4469      -574.664       -5.1997239      49.432755    
   1637000   300.10667      0.89455883     0.6932697      1.5878285      194.05344      105.3819       183.73421      51.883726      43.754282     -20.233865     -577.92807      164.65279      85.570612    
   1638000   300.05395      0.89440166     0.69204807     1.5864497      194.08601      105.35761      183.57622      182.93203      137.9421      -79.93115      -536.20946     -25.6114        40.533678    
   1639000   299.64185      0.89317327     0.69311979     1.5862931      194.1754       105.33759      183.4394      -287.83263      27.445277     -36.938252     -546.40827     -125.87034      184.81962    
   1640000   299.94035      0.89406305     0.69370029     1.5877633      193.97774      105.3611       183.56849      4.4936615     -332.71783      53.0893       -331.39876      14.012209      65.100416    
   1641000   299.85423      0.89380634     0.69431674     1.5881231      194.08113      105.32082      183.60145      200.67032      46.067102      76.354495     -531.03781     -4.5347244      8.8978635    
   1642000   300.09934      0.89453697     0.69179476     1.5863317      194.01486      105.39388      183.49588      143.59184      215.27462     -38.703762     -572.69996     -7.1988519      112.21013    
   1643000   300.17681      0.8947679      0.69355494     1.5883228      194.05797      105.3201       183.71582     -176.59013      155.66384     -264.30192     -551.49233      96.646128      39.039714    
   1644000   300.32588      0.89521223     0.69647816     1.5916904      194.02564      105.3631       183.705        87.527349     -129.56574      7.7555429     -471.45844      101.68477      139.88035    
   1645000   300.12843      0.89462368     0.69097202     1.5855957      193.98543      105.32835      183.59634     -107.73371      186.27026      16.382671     -565.3312       11.741502     -15.840508    
   1646000   299.98076      0.89418351     0.69031451     1.584498       194.04581      105.31203      183.53528      214.59118      466.64871      188.45829     -607.24843     -116.03626      117.69376    
   1647000   299.81004      0.89367462     0.69110264     1.5847773      193.9738       105.37166      183.58179      50.789421      93.104182     -98.162806     -535.28791     -1.9809846     -33.114686    
   1648000   300.11047      0.89457016     0.69242853     1.5869987      193.92069      105.36717      183.63007      251.76878     -181.91271      16.783231     -357.62739     -40.707113      114.6072     
   1649000   300.17158      0.89475229     0.69124377     1.5859961      194.11975      105.27834      183.65299      334.32719      274.63749      16.512636     -424.11827     -75.853185     -37.750662    
   1650000   300.06447      0.89443303     0.69286408     1.5872971      193.99177      105.35957      183.56887     -224.88151      15.161076      13.251181     -450.39372      18.977548      155.95029    
   1651000   299.15424      0.89171982     0.69565717     1.587377       194.08103      105.31442      183.70225      226.65517     -281.22687     -79.421313     -343.74392      142.58418      90.122616    
   1652000   299.99345      0.89422133     0.6934234      1.5876447      193.97908      105.37551      183.61563      215.70876     -168.30735     -52.955099     -514.91124      170.0924       117.68037    
   1653000   300.29804      0.89512927     0.69108606     1.5862153      194.03163      105.37559      183.60408     -278.94999     -53.801988     -44.636335     -399.57355     -100.07396     -26.190565    
   1654000   300.75778      0.89649964     0.69226956     1.5887692      193.9451       105.31253      183.53584      24.817641      270.5305       115.64523     -388.98405      12.394673      28.699275    
   1655000   300.46671      0.89563204     0.69271394     1.588346       193.95187      105.3537       183.48268     -340.22335      72.583654      52.535258     -534.53497     -66.646166      88.454837    
   1656000   299.5239       0.8928217      0.6911564      1.5839781      194.10529      105.3085       183.57092     -118.00946     -28.617963      127.272       -354.34133      105.36994     -52.116438    
   1657000   299.99443      0.89422424     0.69255391     1.5867782      193.8758       105.37633      183.66789      30.898423     -22.890486     -105.3941      -398.33324      45.402602      95.63069     
   1658000   300.2634       0.89502599     0.6935021      1.5885281      193.95051      105.37634      183.57591      284.14862     -9.8208181      34.156562     -600.32149     -24.39093       67.799411    
   1659000   300.11024      0.89456947     0.6919636      1.5865331      193.87355      105.38553      183.62768      564.19058      278.73891      154.90527     -245.02288     -23.961225     -72.494605    
   1660000   300.12692      0.89461917     0.69302523     1.5876444      194.04969      105.33392      183.58465     -25.706729     -173.76517      51.762621     -301.78146      96.046129      205.15101    
   1661000   300.52297      0.89579974     0.69484775     1.5906475      193.91371      105.32214      183.70456      88.778423     -160.0589       22.877195     -515.60402     -122.44136     -43.766244    
   1662000   300.2397       0.89495536     0.69132749     1.5862828      193.81533      105.38468      183.69039      55.79336      -215.59248     -34.818126     -332.465       -66.628803      106.19174    
   1663000   299.29102      0.89212753     0.6913488      1.5834763      193.89626      105.36752      183.64482     -139.44858      16.173056      23.543719     -213.77538      2.6854418     -14.119444    
   1664000   301.17905      0.89775539     0.69166891     1.5894243      194.05774      105.35043      183.48737      32.233339      38.599075      165.66366     -233.37115     -86.220513      50.431744    
   1665000   299.83038      0.89373525     0.69099711     1.5847324      194.0331       105.33269      183.56887     -283.92375      96.897742      6.1512668     -346.64623      29.147589     -0.65421432   
   1666000   299.71805      0.89340042     0.69311306     1.5865135      193.87649      105.38639      183.66798     -235.51214     -35.2544       -95.569729     -458.40422      56.329499      92.034066    
   1667000   299.86403      0.89383557     0.69271274     1.5865483      193.96523      105.39027      183.66201     -229.42887      85.339413     -201.82183     -461.67106     -36.597133      102.18189    
   1668000   300.0039       0.8942525      0.68965974     1.5839122      193.9289       105.34098      183.54098      15.36375      -85.08614       73.040127     -204.00518      181.81828      142.70506    
   1669000   300.07957      0.89447805     0.69159187     1.5860699      193.92538      105.37068      183.57091      17.45954      -196.06964      267.61621     -288.61958      53.107917     -72.469472    
   1670000   299.76049      0.89352692     0.69020988     1.5837368      193.85959      105.3918       183.71807      66.727807     -49.485474      7.0614209     -231.55167     -25.512735      10.013062    
   1671000   300.28884      0.89510185     0.69225943     1.5873613      193.84279      105.36762      183.61397      130.15956     -133.83806      113.02067     -302.478       -101.63391      78.200464    
   1672000   299.67249      0.8932646      0.69204219     1.5853068      193.88983      105.31938      183.54919      326.82475      267.84756      344.15657     -335.81711     -16.790417     -50.255314    
   1673000   299.72028      0.89340707     0.69494082     1.5883479      193.97113      105.28889      183.71704      63.01062       25.415243      35.110662     -388.83494     -31.338554     -94.784785    
   1674000   299.96143      0.8941259      0.69262479     1.5867507      193.91888      105.27331      183.73873     -14.72076       146.23093      168.51175     -350.61766      203.13963      0.30569559   
   1675000   299.97241      0.89415863     0.69252221     1.5866808      193.85024      105.37887      183.66033     -193.70471     -29.791847     -227.56177     -45.120066     -57.454068     -52.712238    
   1676000   299.19676      0.89184657     0.6921303      1.5839769      193.82424      105.40274      183.71606     -17.365024     -256.0369      -164.91011     -265.27288      7.9601294     -53.983278    
   1677000   300.31779      0.89518812     0.69386783     1.589056       193.88347      105.33905      183.5615       21.456784     -184.82763      107.909       -340.73796      129.1764       48.942947    
   1678000   299.50905      0.89277745     0.69398833     1.5867658      193.83566      105.34985      183.63506     -52.087215     -92.935444     -42.163269     -298.54141      34.4477       -8.5381449    
   1679000   300.23154      0.89493102     0.69327303     1.5882041      193.858        105.29079      183.69475      10.374739      332.99186      104.30687     -143.85788      104.43931      151.52338    
   1680000   299.82167      0.89370928     0.69229895     1.5860082      193.78424      105.37473      183.83802     -51.136429      102.80389     -133.62757     -99.380895      72.794776      49.804041    
   1681000   299.98082      0.89418368     0.69220362     1.5863873      193.90268      105.35729      183.66078      229.62606     -102.40273     -209.66467     -135.81057     -109.26507     -26.349419    
   1682000   300.27866      0.89507148     0.69170952     1.586781       193.81022      105.34112      183.61552      187.20473      348.71071      25.184954     -141.38321     -23.497435      34.185622    
   1683000   299.62925      0.89313574     0.69353442     1.5866702      193.79682      105.42407      183.5949       152.39084     -51.479499     -91.972763     -157.96608     -179.24227      84.185695    
   1684000   300.17464      0.89476143     0.69374146     1.5885029      193.81592      105.3783       183.62918     -307.04459     -90.812446     -19.523609     -208.00713     -75.110585     -38.457112    
   1685000   299.87176      0.8938586      0.69292679     1.5867854      193.86084      105.37646      183.64841     -240.29723      128.88314      97.280175     -301.13178     -23.544975      95.746403    
   1686000   299.7284       0.89343128     0.69174907     1.5851803      193.82343      105.37429      183.62282     -166.32098     -127.84829      75.199366     -91.734949      25.560406     -38.005484    
   1687000   300.05805      0.8944139      0.69022833     1.5846422      193.86985      105.36487      183.55713     -24.216245      297.31799     -8.2279149     -183.7797      -50.105187      149.18309    
   1688000   299.51182      0.89278568     0.69057202     1.5833577      193.79624      105.31092      183.59688      172.81233      140.65003      6.7159858     -37.645597     -22.378562      99.197875    
   1689000   299.799        0.89364172     0.69280222     1.5864439      193.95966      105.32093      183.56188     -34.859225      119.18938     -74.500079     -141.82939      3.5862986      48.58532     
   1690000   300.53436      0.89583368     0.69061552     1.5864492      193.76133      105.36617      183.64157      53.312697      188.13931      145.14012     -355.39313     -43.654643     -7.3686223    
   1691000   300.16556      0.89473435     0.69357817     1.5883125      193.91152      105.41849      183.68053     -120.22824      122.15067     -44.232861     -45.103254     -88.969872     -55.809857    
   1692000   299.97539      0.89416749     0.690919       1.5850865      193.79006      105.4015       183.58308      146.86497     -78.055674     -198.34211     -99.755269      32.86463      -25.394917    
   1693000   299.72091      0.89340894     0.69500327     1.5884122      193.73667      105.43787      183.62284     -108.11535      60.822091     -129.89443     -8.3480697     -6.895067       3.4164114    
   1694000   299.58071      0.89299103     0.69074328     1.5837343      193.85036      105.31101      183.7119       174.68247     -154.44364     -84.49657      -182.05762     -1.4092295      14.648138    
   1695000   299.88537      0.89389916     0.69269765     1.5865968      193.90264      105.36568      183.65028     -279.45793      31.298338     -90.024394     -134.37886     -27.717065     -53.97848     
   1696000   299.53586      0.89285736     0.69115017     1.5840075      193.96427      105.37508      183.69686     -271.98453      125.75544      23.406516     -113.42816     -8.1583205      177.72846    
   1697000   300.52347      0.89580123     0.6904053      1.5862065      193.78258      105.39076      183.60888      85.415888     -46.56229       196.66653     -86.211078      45.805837      238.49058    
   1698000   300.27591      0.89506328     0.69377727     1.5888406      193.899        105.38253      183.63383     -127.32186      82.550114      68.328121      56.220459     -38.027751      85.306304    
   1699000   299.62867      0.89313399     0.69162633     1.5847603      193.69216      105.36062      183.87073     -207.823        176.25193     -139.28272     -183.63527     -72.582554     -45.666288    
   1700000   300.10239      0.89454607     0.69301684     1.5875629      193.70339      105.37254      183.68787      73.67454       139.83454      30.522244     -261.29368      45.002786      39.767691    
   1701000   300.18949      0.8948057      0.69252922     1.5873349      193.83022      105.40461      183.669        200.80035     -314.10976      53.51138      -115.6306       45.154605     -71.479557    
   1702000   299.79829      0.89363961     0.69271325     1.5863529      193.68089      105.39439      183.71394      104.2821      -727.97011     -142.36645      40.220111     -37.607189      47.167988    
   1703000   299.52633      0.89282893     0.69257734     1.5854063      193.70463      105.42988      183.75263      72.571277     -73.508505      91.567747     -152.18963      74.139421     -106.48644    
   1704000   299.96133      0.89412559     0.69342044     1.587546       193.707        105.35662      183.65285      112.74071     -286.38762      74.11086       38.67366       113.1506       106.68433    
   1705000   299.26532      0.89205092     0.69024949     1.5823004      193.79768      105.37074      183.63249      94.219789     -237.65138      8.3123193      62.014591     -73.282672     -26.872182    
   1706000   300.7266       0.89640671     0.69183323     1.5882399      193.68007      105.3367       183.76075     -265.423        112.40609      27.876442     -146.12918     -50.516046      114.53388    
   1707000   300.29875      0.89513137     0.6917678      1.5868992      193.74246      105.37663      183.74294     -25.028666     -246.69269      57.805005     -108.4917      -83.275863     -98.351826    
   1708000   300.13953      0.89465678     0.69308353     1.5877403      193.74043      105.36356      183.69862     -332.227       -267.44943     -70.870871      68.165657     -96.740616     -13.508073    
   1709000   299.24704      0.89199644     0.69072772     1.5827242      193.6805       105.4095       183.78021     -110.83097     -242.52831     -191.75591      105.30011      182.3351       38.366606    
   1710000   300.28745      0.8950977      0.69449689     1.5895946      193.74107      105.38735      183.88434      91.009153      1.1941916      3.6522006     -64.782822      61.190995     -92.76743     
   1711000   300.23991      0.89495599     0.69145369     1.5864097      193.76703      105.35936      183.70832     -2.9068282     -116.12218      147.14778     -71.251076     -187.60302     -2.1015441    
   1712000   300.10952      0.89456732     0.69128745     1.5858548      193.83846      105.28353      183.7736      -206.12405     -105.12624      70.466252      137.39672      2.0778516      93.177395    
   1713000   300.37421      0.89535631     0.69031307     1.5856694      193.75981      105.42003      183.66387     -14.234834     -56.105661      87.650043      160.08085      102.37649      41.963329    
   1714000   299.71394      0.89338817     0.69444679     1.587835       193.74021      105.38628      183.66188     -133.15021     -71.35609       62.818704     -194.981       -27.768035     -53.794334    
   1715000   299.9395       0.89406053     0.69399868     1.5880592      193.71275      105.40854      183.72464     -151.75214     -385.84695     -179.97605      34.993697      1.552903       72.467474    
   1716000   299.69225      0.89332352     0.69014335     1.5834669      193.61918      105.4099       183.51568     -39.004487      75.271743      113.22339      93.915044      103.37291      113.04209    
   1717000   299.68422      0.89329958     0.69153109     1.5848307      193.81968      105.3556       183.65955     -27.798663      121.6194      -172.10967      91.955458      259.47883      76.005228    
   1718000   300.32386      0.89520622     0.69245031     1.5876565      193.75129      105.40282      183.70477     -71.546132      338.63884     -143.57106      309.98802      106.98641     -4.2771625    
   1719000   300.2549       0.89500067     0.69406293     1.5890636      193.74792      105.43959      183.60243      112.66181      6.8281406     -33.325051      117.90311     -198.48612     -47.955759    
   1720000   299.94311      0.89407127     0.69256113     1.5866324      193.73569      105.42982      183.70367      73.619565     -204.86656     -93.276207      150.094        135.75504      80.288123    
   1721000   299.96248      0.89412902     0.69242556     1.5865546      193.76905      105.40302      183.81349      80.468534     -259.04244     -216.23941      190.28936     -66.573474      21.200096    
   1722000   299.7607       0.89352754     0.69245019     1.5859777      193.70725      105.40388      183.68384     -202.32955     -240.86604     -122.55145     -39.613211      22.39012      -16.0477      
   1723000   299.47999      0.89269081     0.69229593     1.5849867      193.74887      105.4666       183.63924      52.558908     -277.09314      10.52944      -20.430828     -6.2135925     -66.1289      
   1724000   300.185        0.8947923      0.69224585     1.5870381      193.68036      105.45602      183.60607      24.355645      169.75266     -57.499594      165.63077      58.628685     -86.95429     
   1725000   299.91373      0.89398372     0.69066799     1.5846517      193.66113      105.38167      183.79496      6.693795      -247.21125     -65.084519      126.13343     -67.726071      26.710046    
   1726000   300.16371      0.89472884     0.69223784     1.5869667      193.75078      105.42784      183.68316     -77.220956      159.996        1.6929349      192.80513     -121.87935     -0.76063902   
   1727000   299.75255      0.89350326     0.69241448     1.5859177      193.73471      105.41476      183.68398     -53.017841      92.141469     -92.006945      140.01717     -48.597198      140.44807    
   1728000   299.68029      0.89328787     0.69178129     1.5850692      193.57411      105.40114      183.72994     -60.449892     -133.64595     -152.17964      64.133582      49.217816      82.691124    
   1729000   299.95037      0.89409293     0.69323073     1.5873237      193.55004      105.42111      183.72662      64.977084      42.878246      199.24786      319.7457      -8.805619       42.946374    
   1730000   300.30118      0.8951386      0.69056791     1.5857065      193.71074      105.37466      183.75046     -28.707246     -88.558181     -330.93993      297.35127      27.603431     -13.492618    
   1731000   300.29718      0.89512668     0.69146271     1.5865894      193.63108      105.46325      183.56326      281.80705     -120.942        37.474377      216.90443      26.486948      13.626019    
   1732000   299.70688      0.89336713     0.69128629     1.5846534      193.76025      105.41234      183.68145      96.312725     -311.68107      180.44583      93.691627     -36.928187     -69.372243    
   1733000   300.24834      0.89498111     0.6912514      1.5862325      193.70002      105.42218      183.67711     -170.86712      363.61768      96.651272      59.260133     -6.4638597     -1.7398048    
   1734000   299.36036      0.89233422     0.69246073     1.5847949      193.63534      105.42225      183.73182     -255.94069      218.8368      -53.670566      597.29961     -41.564715      74.610118    
   1735000   299.62413      0.89312047     0.69322033     1.5863408      193.69632      105.45671      183.67822      209.72388     -2.5868905     -38.966324      216.32674      29.039447     -15.04061     
   1736000   300.09993      0.89453872     0.69172163     1.5862603      193.63172      105.44695      183.73403      527.09257      169.17772     -214.27891      217.35253     -24.666419     -4.8717626    
   1737000   299.6686       0.89325303     0.6906586      1.5839116      193.71637      105.42826      183.68181      129.1352       0.4036554     -370.87981     -47.860397     -56.132041      107.2698     
   1738000   299.63111      0.89314127     0.69159385     1.5847351      193.64926      105.47566      183.51306     -46.874083      178.29029      176.65473      55.595805      1.6371742      111.95028    
   1739000   299.64368      0.89317874     0.6926429      1.5858216      193.68931      105.42703      183.81018     -117.03022     -307.62206     -137.71693      185.6573       15.804355     -18.892655    
   1740000   299.76781      0.89354876     0.69297972     1.5865285      193.72767      105.43699      183.70825     -26.11726       37.192478     -106.33672      196.82054     -27.196546      194.6491     
   1741000   300.09812      0.89453332     0.69121317     1.5857465      193.64552      105.4695       183.66683      587.17228      62.294216      80.180116      130.64644     -181.8315       21.703909    
   1742000   300.31534      0.89518083     0.6938519      1.5890327      193.64972      105.51038      183.78099     -415.20603     -180.01957     -184.31242      383.39761     -60.40967       70.225507    
   1743000   299.86863      0.89384928     0.69316949     1.5870188      193.73115      105.44111      183.659       -255.30646      70.750918     -27.133688      296.02337      179.83322      27.3808      
   1744000   300.46599      0.89562987     0.69211158     1.5877415      193.59184      105.44838      183.74454      28.362441      173.40687      190.79748      392.26955      1.4601889      100.60699    
   1745000   299.74681      0.89348614     0.69239266     1.5858788      193.8038       105.46086      183.70772      195.18793      217.40123      131.30439      314.17966     -96.084832      57.10267     
   1746000   300.9487       0.89706876     0.6925293      1.5895981      193.67004      105.46694      183.75289      26.404597     -95.559508      107.88047      327.20902      63.613792      23.781975    
   1747000   300.24825      0.89498086     0.69313672     1.5881176      193.77025      105.46304      183.72366      128.59288      379.13223      111.56346      298.57093      67.577598      123.86631    
   1748000   300.18759      0.89480004     0.69441306     1.5892131      193.57809      105.45306      183.75099     -113.57271     -56.164347      55.042376      447.83602      64.011844      6.2867663    
   1749000   299.92611      0.89402061     0.69302369     1.5870443      193.62782      105.51214      183.6915      -188.40954     -81.741048     -94.354383      152.30808      37.218869      91.443852    
   1750000   299.99409      0.89422325     0.69468029     1.5889035      193.54398      105.43085      183.80222     -406.52039     -260.55503     -207.28336      293.39683      102.52714     -106.8562     
   1751000   299.89013      0.89391337     0.69315018     1.5870635      193.58032      105.42754      183.78934      250.51268      460.64123      66.346774      178.30895     -44.051301      8.312025     
   1752000   300.47269      0.89564985     0.69302722     1.5886771      193.5322       105.49248      183.63949      141.77169     -201.01021      8.6116656      311.91534      9.8623834      45.397563    
   1753000   300.01661      0.89429037     0.69528121     1.5895716      193.593        105.4529       183.87939     -265.69494     -375.02303     -103.21052      360.2887      -168.35039     -50.140373    
   1754000   299.80466      0.8936586      0.69276349     1.5864221      193.53243      105.49517      183.8687       136.25169      107.89675     -116.25102      214.95735      30.610898      156.22958    
   1755000   300.2834       0.89508562     0.69341073     1.5884964      193.49588      105.5043       183.72959      94.015282      327.54711      230.13147      337.53786     -58.842472     -14.151024    
   1756000   299.92586      0.89401987     0.69301351     1.5870334      193.5081       105.42592      183.77419     -127.2041       283.77721      199.92959      472.19182      125.33452      25.914319    
   1757000   299.8339       0.89374576     0.69307967     1.5868254      193.49212      105.49403      183.80419     -44.72408      -55.890079      92.093007      409.00218     -1.8350539     -79.350006    
   1758000   300.05773      0.89441293     0.69197838     1.5863913      193.42417      105.5279       183.69748      329.32948      322.03072     -46.608553      502.19183     -85.930655      93.127561    
   1759000   299.89293      0.8939217      0.69137754     1.5852992      193.61414      105.47426      183.68179     -109.4138      -170.06762     -30.720726      355.57968     -60.424489     -72.811395    
   1760000   299.74335      0.89347583     0.69250575     1.5859816      193.54033      105.48222      183.65391      1.6214435     -84.522463      86.963491      586.13543     -9.2516724      154.52861    
   1761000   299.9778       0.89417469     0.69125133     1.585426       193.58293      105.45685      183.64513     -26.87825       143.60611      153.29963      420.14648      122.42919     -19.235769    
   1762000   299.9767       0.89417142     0.69044772     1.5846191      193.48327      105.48426      183.64851     -221.79866      193.03226      75.3164        482.22755      53.182489     -95.296863    
   1763000   300.18432      0.89479029     0.69248237     1.5872727      193.38329      105.53652      183.82518     -82.787976      59.669726     -26.52834       294.46505      1.8946439      121.47732    
   1764000   300.44673      0.89557246     0.69184694     1.5874194      193.53699      105.54253      183.69169      156.14403      111.48358      106.88213      487.04883     -134.43508     -62.948295    
   1765000   299.65748      0.89321986     0.69317543     1.5863953      193.53451      105.51026      183.59998      240.54002     -3.5109323      100.37601      522.57639     -48.982822     -11.961083    
   1766000   299.82561      0.89372105     0.69246548     1.5861865      193.48913      105.53667      183.7229      -6.5529        -151.46679     -108.75941      369.17149     -39.643989     -1.9303535    
   1767000   299.71428      0.89338918     0.69459613     1.5879853      193.59591      105.52524      183.77559     -90.396688     -75.435504     -122.98334      794.58875     -62.303256     -53.603169    
   1768000   300.14526      0.89467386     0.69129846     1.5859723      193.43898      105.52184      183.73242     -233.29037     -301.7178      -240.75197      501.94791     -108.81915      20.794635    
   1769000   300.13573      0.89464544     0.69549456     1.59014        193.49812      105.55721      183.57208     -127.58496      188.38321      42.009056      159.32199     -49.129547     -34.770672    
   1770000   300.38507      0.89538867     0.69289231     1.588281       193.631        105.53141      183.70316      61.208693     -48.640875      92.032592      234.40836     -87.154259     -14.216311    
   1771000   300.02405      0.89431254     0.69604553     1.5903581      193.46844      105.5576       183.79611     -101.46039      148.04765      4.0049878      472.40354     -8.6041018      51.72102     
   1772000   300.39074      0.89540559     0.69267746     1.588083       193.52776      105.54992      183.69324     -50.138733      39.978787      93.410395      457.21047      24.451087      52.133236    
   1773000   299.70404      0.89335866     0.69238181     1.5857405      193.51102      105.50089      183.71956     -247.61352     -274.00962      1.7456737      444.44814     -32.494175      27.093004    
   1774000   299.92532      0.89401826     0.69098935     1.5850076      193.44475      105.55088      183.75011      29.96525      -32.201162     -136.61594      419.30314     -58.159983     -150.71036    
   1775000   300.33923      0.89525203     0.69527986     1.5905319      193.45734      105.5796       183.64465      14.879504     -94.195587      14.775978      429.58871      29.665246      10.361991    
   1776000   299.6052       0.89306403     0.69199173     1.5850558      193.62651      105.58297      183.58835     -326.66568     -85.286038      122.85491      369.38951     -53.373923      62.304545    
   1777000   300.143        0.89466711     0.69406976     1.5887369      193.48699      105.55916      183.63045     -126.53686      268.32357     -74.999151      419.04103     -4.8243653      15.922216    
   1778000   299.68045      0.89328835     0.6912567      1.584545       193.49288      105.51413      183.59443      381.37726      192.67344     -16.293456      462.72396      29.801174     -18.173805    
   1779000   300.10273      0.89454707     0.69275956     1.5873066      193.40219      105.59129      183.74667      171.38112     -224.56798     -125.55486      430.90025      131.51466     -77.12815     
   1780000   299.54545      0.89288593     0.69380099     1.5866869      193.51759      105.53728      183.76645      46.642846      115.41034      107.36247      558.00138      10.991841      13.444429    
   1781000   300.82786      0.89670855     0.69437003     1.5910786      193.53446      105.55968      183.64197     -128.49074      39.668418      81.871949      569.14558      77.986397     -88.696528    
   1782000   300.30952      0.89516348     0.69321914     1.5883826      193.71011      105.45335      183.57879     -97.016663     -32.972115      32.746782      668.56536     -62.365763      49.225387    
   1783000   300.1039       0.89455057     0.69380924     1.5883598      193.55304      105.55825      183.57049     -232.21203      6.1794163      39.033815      557.81305     -52.054767      93.88661     
   1784000   299.88154      0.89388776     0.69504768     1.5889354      193.65293      105.59391      183.67281     -243.84629      32.605245      36.080047      605.70849     -111.59974      76.547785    
   1785000   300.05014      0.89439032     0.69340929     1.5877996      193.49807      105.5922       183.80795     -204.91464     -32.958223      143.4352       572.32569     -42.637923     -42.348461    
   1786000   300.13574      0.89464547     0.69312026     1.5877657      193.50944      105.63566      183.74707      163.01166      120.07758      5.9728063      571.85196      62.882562     -17.0512      
   1787000   299.89638      0.89393198     0.69451297     1.5884449      193.45069      105.53728      183.75042      104.27121     -85.899294      41.64661       467.8868      -190.57869     -41.371965    
   1788000   300.63019      0.89611934     0.69246838     1.5885877      193.41956      105.59918      183.61025     -121.91992     -170.86554     -153.73475      785.58804     -94.680821     -171.06465    
   1789000   299.80205      0.89365079     0.69399717     1.587648       193.55565      105.55956      183.61285     -200.8071      -211.28044      4.9678055      547.79224     -81.08183       57.302294    
   1790000   300.02538      0.89431652     0.69184122     1.5861577      193.61207      105.58367      183.66057     -138.03117     -245.99252      232.84714      602.24974      120.39437     -126.11467    
   1791000   300.58867      0.89599557     0.69306572     1.5890613      193.50483      105.51161      183.66946      291.20776      425.80883     -19.203376      598.01775      63.765127     -180.07851    
   1792000   299.95382      0.89410322     0.69336453     1.5874678      193.42324      105.56554      183.54085      287.55324      171.20768     -54.712389      461.38885      63.916873     -60.733849    
   1793000   300.28317      0.89508493     0.69246911     1.587554       193.47424      105.52851      183.68101     -10.836686      6.3024795     -93.759484      719.02089      57.176138     -63.117231    
   1794000   299.76967      0.89355428     0.69372255     1.5872768      193.46442      105.55671      183.68759      9.8607033     -73.989663     -125.69613      736.48964     -137.98851     -32.379447    
   1795000   300.12078      0.89460088     0.69209134     1.5866922      193.60987      105.61615      183.48663      76.699208      226.47989      224.16789      540.9877      -145.02514     -15.044675    
   1796000   300.17926      0.89477521     0.69305509     1.5878303      193.39937      105.60227      183.66629      167.87779     -49.47995       122.78771      462.18279      20.800694     -115.8037     
   1797000   300.81538      0.89667134     0.69496842     1.5916398      193.52453      105.58069      183.65597      3.8952787      254.02837      220.51596      694.64053      70.707913      44.858208    
   1798000   300.25479      0.89500034     0.69262579     1.5876261      193.4605       105.6114       183.56477      23.420788     -8.5178407      50.844235      586.60542     -42.287423     -46.79864     
   1799000   300.31968      0.89519377     0.69151366     1.5867074      193.50346      105.63086      183.58437     -209.8916      -206.04754     -10.119691      510.20713     -13.729526     -142.83061    
   1800000   300.43767      0.89554546     0.69486872     1.5904142      193.41247      105.60905      183.88247     -92.505358     -105.38257     -240.16195      636.6163       40.799427     -96.317672    
   1801000   300.1993       0.89483493     0.69205514     1.5868901      193.47212      105.59812      183.59213      12.801311     -214.25135     -98.487236      516.13977     -144.81908     -21.27566     
   1802000   300.45886      0.89560862     0.69220544     1.5878141      193.46743      105.57812      183.56921      114.40397      34.433033     -103.98007      738.31879      100.29594     -43.308957    
   1803000   299.48057      0.89269254     0.69306186     1.5857544      193.47695      105.5928       183.7043       66.679049      67.889762     -55.504403      612.11683      82.013405      26.115505    
   1804000   299.80988      0.89367416     0.69355769     1.5872318      193.46097      105.62695      183.69035     -35.491692     -242.4329       107.89573      374.89354      15.828578      17.62496     
   1805000   300.01184      0.89427616     0.69387775     1.5881539      193.44315      105.59355      183.7581       328.10534      225.48644      65.393108      515.3791      -31.880194      36.124192    
   1806000   300.28884      0.89510182     0.69362821     1.58873        193.54821      105.61621      183.48759      116.96505      2.4793551      81.283546      401.49744      3.6358505     -95.408553    
   1807000   300.10748      0.89456124     0.69301759     1.5875788      193.47742      105.64684      183.68243     -173.20649      239.81871      117.75058      773.92673      32.00089      -110.37239    
   1808000   299.49961      0.8927493      0.69408442     1.5868337      193.50164      105.61899      183.62098      19.658736     -24.107348     -102.22329      578.68394     -53.220403     -51.509814    
   1809000   299.66015      0.89322784     0.69255979     1.5857876      193.48972      105.64297      183.69831     -57.262968     -108.50711     -196.0034       794.67325     -62.476108     -64.916994    
   1810000   299.98728      0.89420293     0.69359204     1.587795       193.50251      105.62108      183.65171      169.4916      -127.53807     -25.937547      637.8278      -72.961883     -11.083731    
   1811000   300.26393      0.89502758     0.69428196     1.5893095      193.57267      105.6233       183.45628     -193.33356     -69.091979      281.44129      719.028        59.300408     -90.923746    
   1812000   299.83952      0.89376251     0.69140253     1.585165       193.44692      105.62218      183.61011      146.32911     -62.94118       130.21037      685.25382      60.094811     -42.853202    
   1813000   300.26309      0.89502507     0.69414127     1.5891663      193.53696      105.67158      183.59965     -218.17584     -68.483217     -22.061236      364.45155      111.77783     -40.069272    
   1814000   300.52476      0.89580506     0.6941967      1.5900018      193.49751      105.65986      183.60698      146.27072     -309.97185      74.771805      757.3603      -7.1052335     -191.971      
   1815000   300.72948      0.89641529     0.69255003     1.5889653      193.49989      105.60055      183.50738      239.41255      483.18802      156.42241      680.2528       2.3681102      4.9698615    
   1816000   300.0715       0.89445399     0.69329499     1.587749       193.51237      105.61836      183.62153      132.31421      2.166584       174.79073      544.40982      88.422756     -50.131738    
   1817000   299.53411      0.89285214     0.69287817     1.5857303      193.54425      105.6142       183.51356     -404.82403      523.56587      127.06166      516.04993      30.080362     -218.3139     
   1818000   300.39574      0.89542048     0.69452655     1.589947       193.41983      105.68499      183.62753     -93.977715      109.76732      69.889696      410.59376      6.5853925     -61.069059    
   1819000   300.4006       0.89543498     0.69389183     1.5893268      193.47071      105.70097      183.58457      138.4755       75.954104      42.492782      741.85007     -63.09993       5.4507833    
   1820000   299.93319      0.89404171     0.69451302     1.5885547      193.44897      105.6669       183.59573      75.299394      446.11995      187.31922      716.05765      9.8527064     -7.1505763    
   1821000   300.46294      0.89562078     0.69620218     1.591823       193.43702      105.63443      183.795       -120.22772      220.75732     -45.074123      797.9908       76.260905     -179.25949    
   1822000   300.30388      0.89514668     0.69409817     1.5892449      193.48503      105.69025      183.62092     -587.33502     -313.81956      136.19786      489.93123      57.049373     -47.209667    
   1823000   300.37774      0.89536682     0.69500499     1.5903718      193.50446      105.65491      183.61838      83.222732     -264.00731      64.338591      650.02062     -130.29413     -1.5358449    
   1824000   299.56225      0.892936       0.69197661     1.5849126      193.42693      105.68998      183.71224      435.18083     -119.14958      70.085202      665.42936      169.41181     -84.21632     
   1825000   299.53261      0.89284766     0.69450967     1.5873573      193.45819      105.74818      183.68544     -424.67176     -223.01574     -135.34701      734.22905     -53.886199     -141.78332    
   1826000   300.02633      0.89431933     0.69361867     1.587938       193.53053      105.64772      183.62998     -112.16786      33.006722      43.073509      874.06969     -96.40345      -94.49812     
   1827000   299.78501      0.89360003     0.69405149     1.5876515      193.5028       105.6683       183.6315      -11.690545     -242.76621     -108.22613      675.35054     -9.88766        14.282006    
   1828000   299.63237      0.89314502     0.69304302     1.586188       193.48191      105.67833      183.73972      65.985911      377.24795     -110.01681      656.46299     -130.40855      43.014435    
   1829000   300.11008      0.89456899     0.69432721     1.5888962      193.46491      105.66372      183.74268      8.5878609     -48.521885     -162.19137      694.28926     -16.510514     -52.170137    
   1830000   300.35213      0.8952905      0.69474089     1.5900314      193.51592      105.68413      183.69544     -4.1981722     -321.34335      52.040288      572.70968     -7.7036839     -4.2180732    
   1831000   300.3761       0.89536193     0.69492606     1.590288       193.61735      105.67762      183.77217     -140.32338      358.63989     -112.83233      909.95236      58.976881     -5.6856689    
   1832000   299.66064      0.89322929     0.69316832     1.5863976      193.46404      105.67211      183.69901     -86.501006     -44.956867     -63.694196      645.63884      51.973373     -44.704678    
   1833000   299.72084      0.89340874     0.69412867     1.5875374      193.31833      105.71929      183.61268      121.65294      68.404981      213.93236      609.15246      109.17624     -118.81534    
   1834000   300.80816      0.89664981     0.69446482     1.5911146      193.31818      105.72518      183.65139      413.8803      -51.040881      55.184729      835.76059      11.210259     -54.057392    
   1835000   299.68627      0.89330569     0.69669214     1.5899978      193.40269      105.66812      183.58971     -218.20331      188.29054     -256.20781      554.86191      92.49104      -55.541618    
   1836000   300.21861      0.8948925      0.69405596     1.5889485      193.45804      105.68031      183.75055     -38.737282      201.23942      133.90737      735.7134       17.610435     -81.862266    
   1837000   300.57195      0.89594572     0.69221575     1.5881615      193.30108      105.72305      183.7809      -305.55908     -145.58956     -94.418556      675.4848       113.604       -160.80249    
   1838000   299.41856      0.89250771     0.69327933     1.585787       193.37513      105.69208      183.71793     -39.387222      56.38649      -124.84019      680.79482     -53.736905     -7.0186927    
   1839000   299.70096      0.89334949     0.69497389     1.5883234      193.30911      105.71086      183.7242      -105.74035     -136.48906      78.748876      591.02215      20.237188     -66.832737    
   1840000   299.78677      0.89360527     0.69383951     1.5874448      193.36318      105.67593      183.76319      238.20254      271.16684     -178.2335       769.34106     -19.079351     -51.07776     
   1841000   299.78182      0.89359052     0.6939669      1.5875574      193.41854      105.68313      183.72166      295.45195      120.49524     -75.097597      757.42043      7.2905913     -34.411231    
   1842000   300.65863      0.89620411     0.69493301     1.5911371      193.51097      105.71556      183.64805     -15.7042       -106.22167      5.1776195      784.60462      16.743557      3.9899286    
   1843000   300.01814      0.89429492     0.69391482     1.5882097      193.62613      105.68263      183.62318      30.067908     -135.01124      177.19833      967.05516     -64.567124      40.966089    
   1844000   300.45354      0.89559278     0.69639703     1.5919898      193.41732      105.7506       183.70093      464.50042     -75.480491      68.204169      1012.5286      17.886752     -83.313523    
   1845000   299.63408      0.89315011     0.69582542     1.5889755      193.44561      105.72394      183.69679     -56.855021     -71.760085     -172.64169      917.37575      35.950392     -168.85757    
   1846000   300.28469      0.89508947     0.69401659     1.5891061      193.46646      105.76874      183.63181      140.88661     -181.14967      111.52221      661.33664     -89.544826      70.592343    
   1847000   299.80176      0.89364993     0.69703824     1.5906882      193.58904      105.72565      183.60934     -41.935643      221.09124      122.63206      811.18261     -90.030966     -77.069505    
   1848000   299.84346      0.89377424     0.69641173     1.590186       193.51606      105.72294      183.7033      -114.93162      123.64636      38.665481      592.20846     -5.8168031     -137.45353    
   1849000   299.55925      0.89292707     0.69609961     1.5890267      193.31376      105.78404      183.8132       408.22974      56.170605     -152.01609      777.81589      17.334035     -110.40514    
   1850000   299.99038      0.89421219     0.69466853     1.5888807      193.43153      105.74615      183.6048      -32.191018     -103.16078      85.038914      979.66548     -36.393005      66.234241    
   1851000   300.48963      0.89570034     0.69377964     1.58948        193.44482      105.7415       183.57364      99.185371      281.77822      69.905721      758.71761     -42.718744     -176.58879    
   1852000   300.3302       0.89522511     0.6940535      1.5892786      193.47462      105.74727      183.69663     -113.73299     -152.06371     -278.58197      502.13717      88.761301      13.422181    
   1853000   299.95672      0.89411185     0.69392622     1.5880381      193.35625      105.76514      183.66295     -45.286472     -265.01721     -165.56963      727.16169     -32.100754     -77.019874    
   1854000   300.13193      0.89463413     0.69439794     1.5890321      193.37584      105.79432      183.69781     -75.313755      36.572258      25.557266      930.65065     -228.24208      152.47729    
   1855000   299.91259      0.89398032     0.6948587      1.588839       193.45591      105.75367      183.55478     -150.82187     -137.60679     -88.007846      755.83214     -38.892684     -101.25008    
   1856000   300.32203      0.89520078     0.69482525     1.590026       193.62451      105.77235      183.59686     -183.44942      154.90866      30.180826      693.01255      21.624107     -111.08333    
   1857000   300.39503      0.89541835     0.69790058     1.5933189      193.58996      105.77815      183.68039     -250.80149     -249.54048     -209.41498      909.10166      45.447064     -125.06467    
   1858000   300.37241      0.89535094     0.69392408     1.589275       193.44267      105.7256       183.6865       95.439621      63.845244     -116.8073       863.98222      103.8729      -129.32804    
   1859000   299.8428       0.89377226     0.69362607     1.5873983      193.491        105.74278      183.64403      50.028807     -39.508749      97.333905      649.35703      93.717302     -146.07347    
   1860000   299.85095      0.89379656     0.69416092     1.5879575      193.36781      105.78119      183.67278      313.36042      80.735624      60.216282      786.24141      32.136079     -193.72082    
   1861000   299.91104      0.89397569     0.69480517     1.5887809      193.37329      105.8009       183.64441     -310.00288     -32.510276     -65.013538      759.68996      53.542457     -19.235008    
   1862000   299.95577      0.89410901     0.69461425     1.5887233      193.41537      105.77816      183.64814     -55.812798     -206.73488     -29.83258       764.32481     -8.4568083     -112.37729    
   1863000   299.15467      0.89172111     0.6950315      1.5867526      193.52027      105.75872      183.58635     -380.27771     -115.06604     -128.60382      850.11831     -88.286939     -74.81989     
   1864000   300.00569      0.89425783     0.69541887     1.5896767      193.42901      105.7842       183.64726     -69.817318      18.292275      33.381785      723.49858     -40.350803      42.048584    
   1865000   299.72044      0.89340755     0.69392196     1.5873295      193.53743      105.75715      183.62102      125.98747      176.3159      -10.859837      760.75998     -32.085781     -90.43819     
   1866000   300.30714      0.89515638     0.69695863     1.592115       193.41687      105.79379      183.77586      7.4112346     -21.681142     -221.84837      885.33577      47.007649     -41.64075     
   1867000   300.15704      0.89470897     0.69628427     1.5909932      193.52482      105.73175      183.70302     -105.48909      11.29684       92.46596       834.35427      6.8921863     -41.617517    
   1868000   299.89767      0.89393584     0.69484942     1.5887853      193.53079      105.7812       183.59787     -48.105278     -128.23195      59.268376      757.24766      138.0165      -61.846547    
   1869000   300.29468      0.89511923     0.69644736     1.5915666      193.46013      105.77647      183.71313     -1.0195817      58.458274     -128.19532      672.71778      210.38761     -53.639452    
   1870000   300.33145      0.89522885     0.69434504     1.5895739      193.48373      105.86414      183.55827      164.32231      234.03641     -90.261003      874.57841      0.95992944     80.965493    
   1871000   299.69975      0.89334587     0.6944012      1.5877471      193.51305      105.82135      183.65697     -164.09192     -19.371352      43.122331      819.98966      60.10332      -65.086639    
   1872000   300.30133      0.89513907     0.69580199     1.5909411      193.47902      105.81007      183.59097      64.099761      210.40347      165.25605      884.51161      31.501913     -54.400084    
   1873000   299.45619      0.89261988     0.69960947     1.5922293      193.55743      105.81579      183.66742      316.98479     -127.65344      141.48623      603.88909      105.04603     -108.56118    
   1874000   299.74975      0.89349491     0.69349107     1.586986       193.46993      105.80776      183.6894       1.7207243     -33.015163      45.731281      1034.3342      46.749716     -30.960672    
   1875000   300.24255      0.89496385     0.69566877     1.5906326      193.48871      105.72911      183.67361      131.53729      335.89297     -50.869855      855.75065      47.948542     -123.43464    
   1876000   299.46298      0.89264011     0.69653819     1.5891783      193.49667      105.77464      183.56359      74.110634     -68.645604      85.39976       869.75541     -59.209476     -92.087008    
   1877000   299.96904      0.89414856     0.69284024     1.5869888      193.45172      105.84026      183.56374      30.371777     -135.67561      37.796203      1078.6682      105.87517      51.246853    
   1878000   300.58247      0.89597708     0.69558184     1.5915589      193.5459       105.84732      183.66291      543.86062      111.66161      139.77119      797.53111     -2.4385181     -20.396935    
   1879000   300.5334       0.89583083     0.69673015     1.592561       193.55305      105.82897      183.66621      213.06554      226.18037      123.50609      865.52864      21.102674     -123.37892    
   1880000   299.83352      0.89374463     0.69742749     1.5911721      193.58903      105.82481      183.58831     -171.88776      212.84695     -247.85064      1002.6614      43.739285      116.95326    
   1881000   299.60767      0.8930714      0.6958596      1.588931       193.56939      105.82831      183.63755     -197.12257      371.87149     -34.841038      857.04886      87.336189     -51.879115    
   1882000   299.80019      0.89364527     0.69515819     1.5888035      193.66352      105.80285      183.51692      53.652219      140.01523      18.526777      733.56545     -87.536035     -242.98591    
   1883000   299.96895      0.89414832     0.6957251      1.5898734      193.67822      105.7963       183.63504     -103.89985      39.398495      150.53435      777.00633     -94.726087     -6.0679016    
   1884000   299.81135      0.89367852     0.69699019     1.5906687      193.53434      105.77666      183.63584      92.966456      553.30471      121.798        897.47932      137.86544      15.090901    
   1885000   299.60992      0.8930781      0.69493674     1.5880148      193.54257      105.79136      183.62551     -520.26397      179.26351     -117.53797      818.19825     -19.605622     -183.264      
   1886000   299.43375      0.89255299     0.69816442     1.5907174      193.63883      105.81982      183.7074      -271.62339      208.05474     -15.78602       938.16205     -69.018876     -66.994703    
   1887000   299.69258      0.89332449     0.69541432     1.5887388      193.63697      105.83412      183.63361     -5.8464112     -260.43854      115.23721      994.41        -44.971557     -90.46709     
   1888000   300.82592      0.89670277     0.69760748     1.5943102      193.58925      105.84401      183.68311     -223.84333     -92.372803     -117.86039      933.29054      1.1978184     -44.783662    
   1889000   300.40082      0.89543561     0.69620718     1.5916428      193.63493      105.80736      183.64433      323.11815      176.30106      53.808716      1053.905       15.15975       124.39753    
   1890000   300.40651      0.89545258     0.69836215     1.5938147      193.57784      105.83219      183.66266      370.83981     -123.13966      124.76557      1116.7187      0.84999395     74.685571    
   1891000   299.76418      0.89353794     0.69680561     1.5903435      193.58839      105.85301      183.61291     -180.01803     -87.610287      81.360567      843.03016      93.951046     -94.318096    
   1892000   300.3897       0.89540249     0.69568169     1.5910842      193.49191      105.85047      183.50205      283.12569     -199.90674     -46.597583      1147.3124     -30.241653     -99.454528    
   1893000   299.61351      0.8930888      0.69623625     1.5893251      193.55341      105.87902      183.48291      321.04668      426.5116       98.724028      1003.7731      61.867836     -200.7979     
   1894000   300.20273      0.89484517     0.69746395     1.5923091      193.60336      105.87347      183.60798      20.289814      163.7118      -113.318        991.21122     -9.0516586     -96.242456    
   1895000   300.51229      0.8957679      0.69521498     1.5909829      193.65945      105.84798      183.44006     -266.88046     -547.7697       149.15272      714.78562     -5.287977      -105.62322    
   1896000   299.7962       0.89363338     0.6970367      1.5906701      193.59692      105.85124      183.60247     -115.734        276.71942     -12.847751      768.8238       125.11656      51.223647    
   1897000   299.74809      0.89348995     0.69649785     1.5899878      193.43779      105.86523      183.61791     -128.46315     -74.773967     -188.68535      813.8638       85.98217      -76.884863    
   1898000   299.85161      0.89379852     0.69415709     1.5879556      193.43722      105.81766      183.6552       183.40984     -17.058577     -124.80584      962.61937     -7.1381985     -143.57948    
   1899000   299.62084      0.89311065     0.69498        1.5880907      193.55482      105.86482      183.4454       158.43586      9.9512159      77.140807      826.33237     -52.361094      70.452802    
   1900000   300.27603      0.89506364     0.69765657     1.5927202      193.55455      105.8791       183.69279     -192.6962      -255.72868     -118.58034      834.25939     -38.101514      106.89709    
   1901000   299.81678      0.89369472     0.69655548     1.5902502      193.59032      105.92136      183.52213     -203.74091     -184.52161      52.092138      906.92231      81.607106     -144.06797    
   1902000   299.68497      0.89330182     0.695641       1.5889428      193.62641      105.93768      183.53933     -175.36392     -14.258354      13.319968      997.02987      77.735981     -63.297268    
   1903000   299.88166      0.89388812     0.69696312     1.5908512      193.58859      105.92298      183.553       -379.03395     -26.290015     -125.05349      943.46511      79.122991      24.284452    
   1904000   300.12525      0.89461419     0.69759813     1.5922123      193.6543       105.96007      183.4733      -273.90102      226.11636      48.155831      904.9931       21.24708      -9.749399     
   1905000   299.63878      0.89316414     0.69635882     1.589523       193.55963      105.91478      183.587       -109.29687     -179.56756     -173.06876      944.37143     -53.225524     -70.678026    
   1906000   299.88751      0.89390554     0.69838645     1.592292       193.64135      105.95177      183.53093     -148.25216      1.3203689     -6.5390417      1017.5495     -64.746988     -148.01768    
   1907000   300.07051      0.89445102     0.69690746     1.5913585      193.62149      105.91762      183.5444      -113.08727      2.8328818      12.218695      818.70714      94.648609     -106.9891     
   1908000   299.90531      0.89395862     0.69734322     1.5913018      193.60177      105.90486      183.68531      36.379034      13.106911     -43.806057      934.25296      113.87223     -12.025488    
   1909000   299.06723      0.89146047     0.69718739     1.5886479      193.64234      105.91792      183.64234     -405.31227      156.93194      77.23267       1034.6271      76.936957      41.934645    
   1910000   300.22021      0.89489725     0.69816237     1.5930596      193.68687      105.90234      183.53055     -83.25927       201.21344      58.411627      762.79362      6.8335163      31.147377    
   1911000   300.38756      0.8953961      0.69769558     1.5930917      193.63258      105.96104      183.42745     -146.70686     -373.57621      222.02131      757.79982     -55.750224      115.94067    
   1912000   300.5709       0.89594258     0.69502797     1.5909706      193.6106       105.90798      183.44274     -313.48923     -253.04394      50.123632      817.61804      62.105705     -99.565063    
   1913000   299.31937      0.89221202     0.69865261     1.5908646      193.67923      105.92583      183.51325      234.30526      167.28139      26.762747      984.70435      35.154389     -70.858769    
   1914000   300.30961      0.89516375     0.69694515     1.5921089      193.63165      105.92998      183.42802      223.03638     -24.662691      214.66329      991.59241      123.11828     -154.13206    
   1915000   299.55785      0.89292289     0.69724229     1.5901652      193.67429      105.96164      183.41902     -178.5931      -266.95006      133.71981      943.34446     -105.4615      -160.3882     
   1916000   300.34917      0.89528165     0.69713398     1.5924156      193.64118      105.93069      183.51301      238.1782       181.58783      104.12987      880.83257     -122.90302      17.509123    
   1917000   300.2964       0.89512436     0.69735289     1.5924773      193.67537      105.92755      183.47923     -132.59325     -119.36519     -7.4398337      1090.4441     -79.198146     -53.802197    
   1918000   299.54196      0.89287552     0.69599522     1.5888707      193.68544      105.96194      183.45059     -163.87719     -195.86332     -86.12883       801.54099      26.914318     -62.121176    
   1919000   299.36101      0.89233614     0.69751711     1.5898533      193.76126      105.94368      183.25102     -109.60724      80.32198       9.820988       778.0069      -10.041583     -139.83241    
   1920000   299.94253      0.89406957     0.69782323     1.5918928      193.69948      105.90834      183.41785      0.96768593     534.94503      107.14492      778.98155     -203.63236     -58.16118     
   1921000   300.29593      0.89512296     0.69617702     1.5913         193.6976       105.96147      183.4675      -28.772778      117.25397      333.9607       948.32377      5.0754215      27.852825    
   1922000   299.7746       0.89356899     0.69702345     1.5905924      193.65904      105.9494       183.35665      63.028453      102.28902     -56.230632      1060.8306     -36.663671      11.369003    
   1923000   299.44442      0.89258478     0.69737317     1.5899579      193.73251      105.9998       183.39397      125.30277     -58.046093      128.22388      827.68276      57.634128      96.722125    
   1924000   300.204        0.89484894     0.69814099     1.5929899      193.74674      105.97153      183.492        58.923636     -33.965502     -273.59207      953.40954      46.463273     -0.89880457   
   1925000   299.77392      0.89356695     0.69901755     1.5925845      193.7389       106.00154      183.41225     -229.84142      35.792536     -79.203951      749.78384      12.568915     -34.414143    
   1926000   300.15779      0.89471121     0.69849649     1.5932077      193.70755      106.03615      183.27838     -241.84707     -309.7342      -29.186955      800.25519     -30.53886      -79.348056    
   1927000   300.9899       0.89719155     0.69937306     1.5965646      193.8421       105.96376      183.4048       219.54357      134.49115     -0.012240104    994.37326     -20.107995     -136.09508    
   1928000   299.48708      0.89271195     0.69876982     1.5914818      193.80517      105.99225      183.26372     -37.958135      55.519617      63.751496      880.92566      34.667531     -2.9288178    
   1929000   299.8289       0.89373084     0.69552977     1.5892606      193.63901      105.97767      183.29165     -66.189097      75.630012      179.65778      1090.0523      22.199586     -103.43941    
   1930000   299.51539      0.89279633     0.69864445     1.5914408      193.69138      106.02048      183.35312     -409.63985     -9.8302542     -7.2024158      971.23995      127.71371     -58.046832    
   1931000   300.23768      0.89494933     0.6971963      1.5921456      193.8359       105.95486      183.24954     -403.75355     -39.259876     -30.265852      897.63902     -94.3845       -66.403199    
   1932000   299.88769      0.89390608     0.69504383     1.5889499      193.84972      106.00214      183.18568     -119.27756      42.272467      83.749249      853.04133     -6.0592629      32.10927     
   1933000   300.59921      0.89602699     0.69786984     1.5938968      193.72909      106.04653      183.27386      235.7665      -354.55742      34.461902      898.43384      29.256177     -39.368688    
   1934000   301.07358      0.89744099     0.69896351     1.5964045      193.83315      106.03059      183.19803     -90.714806     -23.189525     -38.961085      927.65604     -4.6095472     -54.503197    
   1935000   299.65779      0.89322081     0.69635917     1.58958        193.80135      106.01156      183.25162     -211.04844      395.17116     -85.46997       1048.871      -19.650578      73.312364    
   1936000   300.31653      0.89518437     0.69747229     1.5926567      193.84675      106.03216      183.32073     -8.6963475     -253.77088     -133.52649      811.45767     -63.096139     -98.933962    
   1937000   299.99442      0.89422422     0.69762291     1.5918471      193.94347      106.10094      183.06679     -152.95434      85.47819      -134.97193      886.04394      26.314115     -61.888921    
   1938000   299.55239      0.89290663     0.69645774     1.5893644      193.78462      106.03864      183.13294      24.347174     -108.66311      114.60767      842.74248     -67.216441     -84.639411    
   1939000   299.92925      0.89402995     0.69692393     1.5909539      193.84715      105.95259      183.24052      262.46788      49.503101     -106.43596      1043.3444     -62.867315      0.47026166   
   1940000   299.9662       0.89414011     0.69949387     1.593634       193.85252      106.01813      183.21273     -131.45549     -238.03191     -123.86084      880.96356      47.470514     -19.301979    
   1941000   300.16981      0.89474704     0.69656481     1.5913118      193.85053      106.0734       183.14407     -119.93382     -93.764725     -176.24236      835.66242     -36.814681     -6.6558429    
   1942000   300.21091      0.89486953     0.69750458     1.5923741      193.74476      106.05212      183.17715     -6.4860358     -141.45696      117.59091      860.06045      62.162897     -173.18962    
   1943000   300.41493      0.89547769     0.69824573     1.5937234      193.85873      106.07688      183.27829      126.51827     -26.02937      -206.1372       1032.3779      25.260581      78.394344    
   1944000   299.50854      0.89277592     0.69839796     1.5911739      193.92632      106.0321       183.20949     -154.89978     -176.62604     -65.841241      869.28329      6.2733776     -89.849222    
   1945000   299.93416      0.89404461     0.69770514     1.5917497      193.77464      106.06366      183.111       -70.138125     -22.695676     -208.67547      1156.3137      12.87346      -109.81466    
   1946000   299.99081      0.89421345     0.69695382     1.5911673      193.89053      106.06441      183.11803     -259.12661      163.52184     -78.908275      906.84016     -172.66264     -38.672236    
   1947000   300.13729      0.8946501      0.69741362     1.5920637      193.78229      106.08249      183.22563     -41.612183     -56.704647      15.437841      1007.4005      120.22737     -38.287906    
   1948000   300.26433      0.89502877     0.69815657     1.5931853      193.7545       106.09977      183.19668      137.55839      332.17192     -25.192355      952.40765     -42.461502     -76.990429    
   1949000   300.11167      0.89457373     0.69836093     1.5929347      193.88526      106.13693      183.11922     -151.90472     -293.34911     -66.316135      1066.9959      71.192054     -41.436785    
   1950000   299.82519      0.89371977     0.69827156     1.5919913      193.87498      106.09501      183.1603      -16.650004     -94.332724     -1.4183444      862.18724      29.228026     -90.022444    
   1951000   299.66334      0.89323735     0.69886212     1.5920995      193.90411      106.07955      183.15881     -221.13832      229.86717      12.62531       983.96975      37.606922     -184.58495    
   1952000   300.34321      0.89526391     0.69615855     1.5914225      193.84333      106.16657      183.02958      285.16054     -145.78046      171.43595      944.84166     -140.04714     -110.57008    
   1953000   299.71682      0.89339676     0.69822295     1.5916197      193.83157      106.10122      183.17931     -462.27588     -177.43127     -257.65627      887.9086       107.10556      76.445774    
   1954000   299.98287      0.89418979     0.6983684      1.5925582      193.86193      106.04527      183.14097      297.41941      337.54164     -123.17757      1011.9059      42.532631      1.6292324    
   1955000   299.72266      0.89341416     0.69730307     1.5907172      193.78704      106.06346      183.14751      42.546665      25.328657     -167.65441      1070.3968      88.960578     -15.49783     
   1956000   299.8726       0.8938611      0.6977454      1.5916065      194.02981      106.08461      183.05302     -124.8351       487.28994      181.34115      873.37134     -169.82201      37.025205    
   1957000   299.69408      0.89332896     0.69889484     1.5922238      193.98026      106.13621      183.08281     -188.5331      -142.84009      208.3883       935.74118     -0.51970543    -47.01508     
   1958000   300.73654      0.89643633     0.69748882     1.5939252      193.87938      106.15835      183.16098     -7.8171789     -55.46008      -68.75546       948.04997      28.719818     -108.95053    
   1959000   299.51221      0.89278685     0.69825317     1.59104        193.82623      106.19144      183.033       -298.9525      -191.08379     -23.179635      1225.5188     -109.28934      84.23803     
   1960000   299.86086      0.8938261      0.69639522     1.5902213      193.85449      106.16199      182.95304      27.2504        281.85358     -34.129225      895.84159      50.007981     -46.212277    
   1961000   300.40258      0.89544086     0.69905812     1.594499       193.96597      106.102        183.09887     -179.66573     -134.42772     -204.36887      987.14164      73.842722      11.012349    
   1962000   300.69595      0.89631534     0.69698395     1.5932993      193.8703       106.17253      183.00517     -128.61775     -361.82162     -64.454818      1146.6397      9.6625682     -24.13212     
   1963000   300.17102      0.89475063     0.69843276     1.5931834      193.96095      106.14527      182.92631     -63.381292      133.59374      117.75056      715.71856     -22.866465     -60.890138    
   1964000   299.83761      0.89375681     0.69798374     1.5917406      193.7628       106.14123      183.06276      15.31948      -397.25874     -120.12056      920.38243     -18.235549     -30.748472    
   1965000   299.4295       0.89254032     0.69992164     1.592462       193.94614      106.17582      182.9779       240.21655     -184.74671     -39.929147      1206.0767     -42.72697      -25.501339    
   1966000   300.04032      0.89436105     0.6987926      1.5931536      193.84715      106.16999      182.90751      35.646427     -98.730759     -77.558221      858.60648      99.871576     -128.27691    
   1967000   300.07108      0.89445274     0.69925111     1.5937038      193.98421      106.16397      183.06473      131.41418      154.11593     -144.28568      997.70061      22.47613      -51.850602    
   1968000   300.2428       0.89496459     0.69833402     1.5932986      193.9359       106.15138      182.9555       27.263172      9.7924543     -55.440428      1084.9427      36.56731       14.721913    
   1969000   300.20983      0.89486632     0.69665586     1.5915222      193.82791      106.24069      182.90956      28.805234      166.1373       112.00399      1036.6426      26.445858      87.196889    
   1970000   299.96402      0.89413362     0.69875855     1.5928922      193.92107      106.16717      182.98491     -153.57614      188.45819     -155.99601      859.44927     -58.402938      90.697625    
   1971000   300.51887      0.89578752     0.69603784     1.5918254      193.8964       106.15742      182.86086      120.6153       71.219507     -279.75904      870.37391      23.127647      63.524915    
   1972000   300.03621      0.89434879     0.69607096     1.5904197      193.92333      106.15388      183.00489     -65.129496      11.614527     -95.191121      810.70567     -74.118886      67.965356    
   1973000   300.36823      0.89533848     0.69818667     1.5935252      193.93799      106.15747      182.88409      25.795896     -147.31077      76.753262      742.60824      67.589132     -73.838124    
   1974000   299.91778      0.89399578     0.69887601     1.5928718      194.05455      106.21755      182.87017     -100.27912      119.74784      41.887788      955.02651      76.748223     -17.32934     
   1975000   300.22981      0.89492589     0.69826271     1.5931886      194.02167      106.20037      182.91083     -21.229765     -19.999914     -23.424685      938.82658      6.1305787      162.452      
   1976000   300.29066      0.89510725     0.69858631     1.5936936      193.94129      106.22964      182.86333      233.04567     -26.77576      -9.4097484      915.12585     -13.433863      42.342324    
   1977000   299.72799      0.89343006     0.69907561     1.5925057      194.04264      106.19369      182.85896     -113.36287      258.69003     -128.8597       1030.8373      40.804162     -89.809783    
   1978000   300.53264      0.89582856     0.69741671     1.5932453      193.98768      106.15602      182.90521      93.33862       51.872295     -10.54902       926.60963     -9.6906306      33.596655    
   1979000   299.90604      0.89396079     0.69858172     1.5925425      193.98171      106.23486      182.86429      195.43337      4.6012777     -21.03005       876.60439      145.89251     -65.883025    
   1980000   300.02354      0.89431104     0.69787522     1.5921863      193.93078      106.21979      182.78482     -86.487268      26.504114     -56.690813      919.62758      128.46842     -117.0573     
   1981000   299.99091      0.89421378     0.69796388     1.5921777      193.89971      106.189        182.82893     -253.71039      26.514348     -94.503861      1030.7666      70.069236      73.193809    
   1982000   300.27002      0.89504575     0.69978122     1.594827       193.93224      106.25196      182.76827      32.457039     -38.036723      156.21969      986.77286     -29.502807     -6.5295317    
   1983000   300.26122      0.89501949     0.69962122     1.5946407      193.92538      106.27458      182.89708      43.091595      83.717861      65.281358      1031.9208     -52.778743     -47.488521    
   1984000   299.25637      0.89202423     0.69729172     1.589316       193.85366      106.21152      182.83666     -254.06564      271.2134      -24.360358      925.92269      103.71756      101.54434    
   1985000   300.17162      0.89475243     0.69635245     1.5911049      193.8638       106.28596      182.7088       246.1556      -219.71871     -70.307076      1129.6966      86.866414      85.87201     
   1986000   300.49045      0.89570279     0.6968722      1.592575       194.01057      106.21818      182.79455     -12.022613     -127.38629     -210.47977      995.98009     -20.91245       16.083162    
   1987000   299.7839       0.89359672     0.69852833     1.5921251      193.78058      106.26561      182.74407      86.442831      60.309312      261.687        944.56335     -12.409909      33.677782    
   1988000   300.02872      0.89432646     0.69920048     1.5935269      193.81717      106.29323      182.69803      35.417853     -4.4234542     -116.21216      888.93058      132.87084     -122.44088    
   1989000   299.35571      0.89232036     0.69531817     1.5876385      193.82196      106.22481      182.75612     -112.76294      66.923809      46.894331      989.24687     -60.744002      74.231213    
   1990000   299.45387      0.89261295     0.69664536     1.5892583      193.92162      106.23567      182.80156      233.64121      262.64713      207.0809       1024.1062      169.73323     -140.90871    
   1991000   300.25973      0.89501507     0.69669475     1.5917098      193.77697      106.29497      182.79092     -119.26605     -453.1953       86.114033      1110.2554     -35.170832     -83.87068     
   1992000   300.25153      0.89499062     0.69815143     1.5931421      193.84674      106.27817      182.75769     -45.67822       119.18635      80.588441      886.67784      50.423745     -121.33169    
   1993000   300.12294      0.89460731     0.69772598     1.5923333      193.91633      106.27831      182.66738     -128.56161     -143.72446      40.741899      821.96387     -40.288365     -17.112033    
   1994000   299.59937      0.89304665     0.69940945     1.5924561      193.9324       106.25986      182.76235      85.119167      97.972516      97.788841      863.0709      -68.989022     -156.33266    
   1995000   299.39502      0.89243753     0.69647298     1.5889105      193.93479      106.26488      182.66949      26.699544      129.90143      32.231984      1038.8054      37.704256     -9.926755     
   1996000   299.6569       0.89321816     0.70078452     1.5940027      193.9348       106.27757      182.72046      96.531309     -7.9625299     -96.585764      800.70948      81.454891     -59.35566     
   1997000   300.77261      0.89654386     0.69762455     1.5941684      193.73712      106.30113      182.72262      317.64205      97.094793     -254.70945      831.03213     -54.768351      32.771942    
   1998000   299.9797       0.89418035     0.69754629     1.5917266      193.93353      106.27608      182.62225      47.727638      78.674467     -4.6206768      1045.3941      88.46702      -25.272311    
   1999000   299.81444      0.89368774     0.69789432     1.5915821      193.94496      106.30106      182.57204      72.561355     -129.57646     -8.1979874      1006.9954      18.36661       37.778832    
   2000000   300.84655      0.89676425     0.69908683     1.5958511      194.02411      106.28023      182.55936     -128.62842     -264.89496     -85.63886       1031.1995      30.545389     -140.43335    
   2001000   299.96594      0.89413933     0.69606907     1.5902084      193.94073      106.24876      182.72024      106.92457      308.20638     -16.885557      1100.5277      15.042829     -11.119257    
   2002000   300.50373      0.89574238     0.69923282     1.5949752      194.03824      106.32236      182.61258      275.97535     -63.746453     -17.943469      1088.6414      74.200386     -61.144207    
   2003000   299.73561      0.89345276     0.6996703      1.5931231      193.93086      106.31316      182.67292     -112.91044     -228.84084      79.933365      1008.319       96.521837     -48.220017    
   2004000   300.14097      0.89466105     0.69795569     1.5926167      193.94804      106.33411      182.59365     -143.08282      123.6597      -86.881545      945.76052     -53.066991      7.7261081    
   2005000   300.08282      0.89448772     0.69851478     1.5930025      194.08112      106.3736       182.58067     -286.70107     -159.16407     -82.214916      979.89658     -33.445333     -92.776672    
   2006000   300.02684      0.89432088     0.69725038     1.5915713      194.0168       106.29355      182.6623       38.515456      162.77871     -59.538355      1036.4284      20.623949     -75.745283    
   2007000   300.08483      0.89449373     0.6977501      1.5922438      194.08597      106.33426      182.37792      72.069803      110.42434     -85.943233      1083.1958     -31.961153      7.7743191    
   2008000   299.81227      0.89368128     0.69841718     1.5920985      194.06579      106.32309      182.59569     -252.4698      -199.81029      123.60745      1043.7479     -28.77301       8.5495139    
   2009000   299.9593       0.89411953     0.6965675      1.590687       194.18918      106.36549      182.48117      252.24607      204.33844      248.73238      876.6884      -17.282325     -114.56086    
   2010000   300.37696      0.89536451     0.69616001     1.5915245      193.96014      106.32946      182.48994      89.954952     -50.896579      112.81612      1294.397      -86.939974     -120.87724    
   2011000   300.134        0.89464029     0.69631713     1.5909574      194.16331      106.34406      182.57489      167.85546      47.789856     -93.654848      831.76217     -63.828948     -153.45447    
   2012000   299.74855      0.89349135     0.69723371     1.5907251      194.00367      106.28915      182.52834     -275.42658      264.30093      120.16894      1072.22        25.478941     -107.12281    
   2013000   299.96328      0.89413142     0.69670499     1.5908364      194.0293       106.34528      182.53837     -385.75125     -331.86879     -18.924267      943.19612      70.466659     -23.133216    
   2014000   299.12774      0.89164082     0.69477008     1.5864109      194.15207      106.33509      182.41256     -74.230078     -240.82884     -201.04954      1134.6273      78.012446     -42.144085    
   2015000   299.83872      0.89376012     0.69996373     1.5937238      194.09529      106.34286      182.52944     -237.39748     -103.4249      -118.69097      1024.9995      16.428208     -25.568548    
   2016000   299.93061      0.89403402     0.69800499     1.592039       194.17745      106.32286      182.50016      83.980372     -91.632698     -189.23632      1078.7667     -2.0310212     -10.182653    
   2017000   300.18214      0.89478378     0.70014641     1.5949302      194.22972      106.33198      182.44304     -9.8775469     -123.13368      103.97778      1148.2135      56.807467     -52.915756    
   2018000   299.91078      0.89397491     0.69759553     1.5915704      194.11453      106.40758      182.32804     -96.112048      78.384466     -113.86158      1156.127       117.05421      15.012481    
   2019000   299.9977       0.894234       0.69819335     1.5924274      194.16252      106.38546      182.44111      53.52349      -8.8444765     -306.01488      1182.9349      31.687692     -78.244461    
   2020000   300.42223      0.89549943     0.6971702      1.5926696      194.15037      106.39073      182.3945      -42.296782     -233.06346     -68.837371      1133.3033     -88.574251     -113.12747    
   2021000   299.75486      0.89351014     0.70009603     1.5936062      194.21533      106.38901      182.42556     -153.70069      88.26199      -38.322073      828.18777     -16.040815      24.010401    
   2022000   299.94703      0.89408297     0.69774378     1.5918267      194.13408      106.35332      182.37843      218.57121      379.26054      200.24253      1000.9218     -11.940344     -67.460026    
   2023000   299.81932      0.89370228     0.69898013     1.5926824      194.21495      106.33918      182.49058      78.037207      271.44218      33.130001      1135.0466      83.140491     -171.73879    
   2024000   300.2841       0.89508771     0.69807955     1.5931673      194.20743      106.35157      182.39706      152.30431      246.74588      185.76395      1001.4393      14.02108      -7.2687103    
   2025000   300.88763      0.89688671     0.70015363     1.5970403      194.19306      106.38909      182.43615      82.476977      29.721949     -36.628078      909.37831      48.880575      65.914331    
   2026000   300.37138      0.89534788     0.6991854      1.5945333      194.21294      106.37528      182.44653      368.766       -0.14141067    -14.863052      1377.7225     -63.555284     -61.678016    
   2027000   299.82493      0.89371901     0.69843026     1.5921493      194.25222      106.34763      182.52291     -77.567287     -53.679333     -19.272872      1139.4287     -9.7927889     -17.276967    
   2028000   299.12057      0.89161947     0.69849339     1.5901129      194.23887      106.3793       182.31582     -100.14274      23.531126     -21.590331      1284.6107      11.301842     -86.425251    
   2029000   299.71606      0.8933945      0.70045162     1.5938461      194.28128      106.42101      182.46171      14.191783      78.535086      34.832312      1167.4195      52.912764     -2.0507928    
   2030000   300.35562      0.89530088     0.70126438     1.5965653      194.20564      106.44013      182.33495     -67.96268       274.11665      32.681222      1141.7728      27.984173      26.779902    
   2031000   299.73222      0.89344266     0.69826018     1.5917028      194.27389      106.40487      182.2811      -9.5617938      356.74019     -136.47514      1139.8884     -13.615527     -13.974296    
   2032000   299.63436      0.89315095     0.69932088     1.5924718      194.32653      106.40187      182.32627     -196.6164      -104.16152     -118.61554      1156.5416     -22.775058     -13.146737    
   2033000   299.98897      0.89420797     0.70041974     1.5946277      194.42828      106.40554      182.28309     -200.46521     -14.461994      66.346482      1118.1317     -215.57512     -68.773461    
   2034000   299.78147      0.89358946     0.69973116     1.5933206      194.44349      106.46395      182.24154      189.87218      284.74802     -18.520554      918.01174      109.3079      -170.28282    
   2035000   300.04105      0.89436323     0.69920207     1.5935653      194.37812      106.38994      182.40421     -4.6184344      372.48726     -112.83811      1201.8301      85.984371     -85.762395    
   2036000   300.51898      0.89578784     0.70107396     1.5968618      194.36591      106.44856      182.30604      26.256521      308.61265      235.184        971.51281      3.1294665     -79.960439    
   2037000   300.2869       0.89509605     0.69819041     1.5932865      194.42941      106.45233      182.20472      104.99325     -86.382112      41.127923      919.28213      30.187991     -63.649247    
   2038000   299.50892      0.89277705     0.69988779     1.5926648      194.40601      106.42095      182.2384       4.6045602     -208.76598      126.22168      898.86356     -49.04326      -14.236663    
   2039000   299.63895      0.89316464     0.69880425     1.5919689      194.42678      106.47911      182.19828     -450.5992       56.566441     -4.0436667      1112.7932     -13.625686     -7.3636569    
   2040000   300.98556      0.89717861     0.70041544     1.5975941      194.34935      106.4948       182.24933      99.278983      216.12037     -153.23718      1222.779      -39.439974      21.333131    
   2041000   300.58456      0.89598331     0.6990612      1.5950445      194.41626      106.47126      182.32076     -174.81418     -448.57657      50.189543      1181.7855     -64.638295     -74.060542    
   2042000   299.51313      0.89278961     0.69958977     1.5923794      194.44581      106.47576      182.18326      237.24944      85.436406      128.70242      1159.1642      34.307312      9.749732     
   2043000   299.39243      0.89242982     0.70091398     1.5933438      194.43767      106.4816       182.19074     -68.948378     -281.76554     -276.84874      819.48007      5.3004148     -51.966747    
   2044000   300.28221      0.89508208     0.69886814     1.5939502      194.43753      106.41932      182.28027      31.810766      334.96463     -22.474183      1065.3145     -84.287261     -223.39338    
   2045000   300.5061       0.89574944     0.69880483     1.5945543      194.4932       106.46228      182.04435     -355.09873     -183.64324     -21.171799      1094.4363     -80.087677     -104.10252    
   2046000   300.245        0.89497117     0.69889812     1.5938693      194.50419      106.49004      182.17084     -10.079004     -110.83482     -93.908039      1150.4191      134.51372      39.28226     
   2047000   300.59652      0.89601898     0.69873382     1.5947528      194.58242      106.42997      182.19189     -288.52613      265.38943      135.21083      1142.0006      51.901908     -136.44507    
   2048000   300.4225       0.89550026     0.70103266     1.5965329      194.49153      106.49508      182.11346     -151.44949      35.797007      126.32316      928.1026       10.505843     -62.177427    
   2049000   299.41285      0.89249069     0.70061456     1.5931053      194.51919      106.52696      182.15999      247.39296      323.51422      90.998643      1105.3641     -96.061589     -10.208544    
   2050000   299.88177      0.89388843     0.70154927     1.5954377      194.69762      106.51068      182.09968     -54.399353     -158.88263      19.856201      1152.7298      58.217001      76.27902     
   2051000   299.81621      0.89369302     0.69961835     1.5933114      194.51996      106.51562      182.16227     -196.05666      293.29056     -15.569317      1207.3407      32.65064      -4.1817724    
   2052000   300.16816      0.8947421      0.69888964     1.5936317      194.47082      106.50973      181.96433     -122.36569      57.578967     -9.4985293      958.56657     -6.4686016      39.19015     
   2053000   299.53244      0.89284714     0.70234349     1.5951906      194.51268      106.51634      182.09625     -155.01493     -211.20713     -100.58969      1051.7649     -68.759679      14.20318     
   2054000   300.19187      0.89481279     0.69890411     1.5937169      194.65314      106.51731      181.96452      195.71188      200.53539     -135.80456      1009.8452      25.948493     -94.204115    
   2055000   300.39372      0.89541445     0.70100572     1.5964202      194.63033      106.53339      181.95573      261.32258      62.391807      97.379721      832.29686     -66.032164      24.3729      
   2056000   299.46968      0.89266009     0.70047525     1.5931353      194.48968      106.49707      182.12549     -100.6635      -286.25357     -27.893749      1092.3338      94.676882      34.187293    
   2057000   299.84039      0.8937651      0.7002369      1.594002       194.67859      106.53788      182.00108      104.91264     -28.517563     -39.458857      914.12157      65.437516      83.886973    
   2058000   300.24499      0.89497111     0.69910354     1.5940746      194.52946      106.5545       182.02339      184.42696      168.35624      109.09974      1021.4609     -2.9182799     -110.97484    
   2059000   301.17321      0.89773798     0.69931692     1.5970549      194.57663      106.52975      182.06204     -291.07529     -158.28921     -72.43088       1198.9127      45.247665     -115.23731    
   2060000   300.46336      0.89562204     0.69923947     1.5948615      194.56234      106.5383       181.94404     -275.14804     -267.89355      13.083662      859.49336      33.418191     -124.35868    
   2061000   300.56525      0.89592575     0.70238425     1.59831        194.66913      106.57508      181.98406      16.462281     -45.477143     -211.73174      1012.6086      32.902488     -49.78573     
   2062000   300.02055      0.89430211     0.70283468     1.5971368      194.72289      106.58214      182.05764     -71.539369      34.648923      168.17766      857.24172     -78.438947     -40.162096    
   2063000   300.42446      0.8955061      0.70143219     1.5969383      194.72601      106.57665      181.95229     -535.21672     -170.45711      118.38468      992.20663     -79.018634     -97.098896    
   2064000   300.05867      0.89441574     0.69890273     1.5933185      194.64572      106.54908      181.91063     -66.23763       158.01386     -30.578502      1321.9737     -66.081119      73.080528    
   2065000   300.11233      0.89457571     0.7021184      1.5966941      194.53098      106.60299      182.01573      172.55632      12.12417       105.64017      1196.126      -78.95473      -6.3273436    
   2066000   299.56297      0.89293817     0.70241351     1.5953517      194.65499      106.58586      182.01707      2.9377419      118.62272     -156.8538       1053.1106      59.447762      10.419954    
   2067000   299.86132      0.89382749     0.70185388     1.5956814      194.63755      106.57668      181.96482     -73.351317      21.23473       24.235102      1137.4059     -16.357104     -87.01255     
   2068000   300.8323       0.89672179     0.70026055     1.5969823      194.80453      106.61244      181.98586      237.43435     -11.607977      90.697664      981.91646     -87.237519      44.166564    
   2069000   300.04928      0.89438775     0.70211739     1.5965051      194.64936      106.62585      181.82707     -183.17227     -143.98367      54.7666        1003.2282      53.052549      21.87288     
   2070000   300.40433      0.89544608     0.70173168     1.5971778      194.65862      106.60805      182.03501     -271.33072     -77.980772     -145.68076      1135.7475      20.680262     -55.897224    
   2071000   300.10908      0.894566       0.70054003     1.595106       194.802        106.63977      181.83568     -114.12882      218.42311      29.879395      945.51014     -81.060804     -45.114304    
   2072000   299.77885      0.89358166     0.70041902     1.5940007      194.66818      106.61723      181.88474     -7.0115805      184.36282      28.767975      1195.4999      70.16479       43.970097    
   2073000   299.3947       0.89243658     0.70153171     1.5939683      194.66734      106.63035      181.89207     -134.44564     -290.47798     -35.49152       1120.4307      0.0021773212  -201.07506    
   2074000   300.59132      0.89600348     0.70227224     1.5982757      194.68555      106.67288      181.88177     -129.9422       87.580973      75.762434      1391.5716     -83.636593     -60.325825    
   2075000   300.37128      0.89534757     0.70287915     1.5982267      194.75184      106.6304       181.80921      128.41772      234.68225      188.56414      976.45047      170.89252     -29.472152    
   2076000   299.97088      0.89415405     0.70027369     1.5944277      194.70888      106.61256      181.85909      79.6137        84.625128     -74.544119      1183.2075      94.048793     -49.073208    
   2077000   300.18762      0.89480011     0.7019082      1.5967083      194.88207      106.63687      181.7759      -129.77827     -104.20196      47.160616      1106.7209     -73.73919       56.397739    
   2078000   300.62923      0.89611647     0.70191591     1.5980324      194.67706      106.67868      181.83529      112.08417     -247.61566     -0.43290352     1312.6557     -59.433924     -122.51877    
   2079000   299.33683      0.89226409     0.70263303     1.5948971      194.76593      106.68427      181.80006      75.733267     -104.90285      110.18875      1283.2709     -185.50527     -38.137817    
   2080000   300.0163       0.89428944     0.70080284     1.5950923      194.82223      106.6139       181.89357      409.17678      294.6098       54.898859      969.94878     -5.9899874     -61.530779    
   2081000   300.70782      0.89635075     0.70048621     1.596837       194.9748       106.65734      181.69036     -42.784777      122.1113      -24.347095      990.91835     -18.380858      113.39403    
   2082000   299.36984      0.89236249     0.70136137     1.5937239      194.70216      106.61932      181.72485     -219.36816     -40.041946      330.41294      1136.9977     -107.07919      19.187972    
   2083000   299.61598      0.89309616     0.70090659     1.5940028      194.85697      106.65614      181.74109      10.369522      162.66438      77.426743      1033.6117      21.743308      16.708667    
   2084000   299.9258       0.89401969     0.70261015     1.5966298      194.84786      106.73868      181.79553      16.966678     -27.771804     -6.2396519      1038.8328     -46.261013     -61.48711     
   2085000   299.08472      0.8915126      0.69968556     1.5911982      194.83431      106.71821      181.81809     -107.52339      51.565977     -22.529249      1300.6517      54.433425     -34.364598    
   2086000   299.87663      0.89387313     0.70366539     1.5975385      194.86751      106.73483      181.73244      153.08691      69.438766      30.339865      960.01978     -14.778034     -135.70933    
   2087000   299.95158      0.89409654     0.70105226     1.5951488      194.80202      106.65065      181.69794      118.8158       125.3115       92.31204       1087.5163     -55.460043      105.82993    
   2088000   300.03787      0.89435373     0.7023981      1.5967518      194.88331      106.67412      181.78407      66.358866     -40.217173     -64.409274      908.25715     -13.761657      27.761018    
   2089000   300.0343       0.89434309     0.70301844     1.5973615      195.00539      106.73835      181.68337      15.023372     -105.71745     -234.55362      886.7663       43.061779     -127.11829    
   2090000   300.41822      0.8954875      0.7042437      1.5997312      194.97504      106.6525       181.74427     -17.460951     -95.961386     -199.76656      1117.9946      44.06902      -45.290112    
   2091000   300.39096      0.89540625     0.70330425     1.5987105      194.8686       106.68819      181.61283      64.556245      164.88867      250.27367      984.2103      -112.82556      23.728107    
   2092000   300.15218      0.89469447     0.70174709     1.5964416      195.00267      106.72088      181.58245      281.79483      30.804102      44.950802      1272.3114     -24.407686      47.609458    
   2093000   300.18545      0.89479365     0.70302711     1.5978208      194.91736      106.71746      181.81945      35.583976     -44.44669       113.59966      1165.5707     -42.598234      107.63089    
   2094000   300.09001      0.89450915     0.70093781     1.595447       194.91896      106.69912      181.72482     -183.9843      -213.17266      17.089938      1196.6305      87.504955     -18.88103     
   2095000   300.35876      0.89531025     0.70399725     1.5993075      195.03045      106.69943      181.59882      48.663276     -17.419595      98.782415      980.65811      60.550912     -125.02058    
   2096000   299.96068      0.89412365     0.7030214      1.597145       195.04926      106.73254      181.68307      195.90273     -105.3481       124.99911      956.89092     -71.423481     -23.945977    
   2097000   299.83383      0.89374555     0.7043122      1.5980577      194.97491      106.7483       181.68529     -118.81711     -181.24881     -199.59306      1042.9425      84.875924      104.04398    
   2098000   301.03911      0.89733824     0.70464728     1.6019855      194.9752       106.71242      181.77202      5.7748493     -153.54283      36.92281       890.66625      5.9153036     -38.819828    
   2099000   299.94031      0.89406293     0.70165089     1.5957138      195.01465      106.73907      181.49125      205.61418     -187.97116      130.4227       1193.8183     -67.247406      2.4207087    
   2100000   300.40293      0.89544191     0.70163454     1.5970764      194.94537      106.78323      181.67276     -63.882079      131.54851     -172.90212      1002.9559     -87.648048      159.15598    
   2101000   299.96443      0.89413483     0.70149503     1.5956299      194.95724      106.75068      181.63844     -132.21004     -208.17802      175.91666      1076.2005     -90.312857      6.4813594    
   2102000   299.91734      0.89399446     0.70197056     1.595965       194.94397      106.80543      181.6253       131.63871      212.51705     -60.118651      964.91422      53.3759       -49.000505    
   2103000   300.21446      0.89488013     0.70144349     1.5963236      194.97934      106.78526      181.53245     -78.85928      -69.840329     -35.755673      1114.9429     -100.66889      33.087951    
   2104000   299.92888      0.89402887     0.70254771     1.5965766      195.00669      106.7489       181.73623      3.4276604      33.651236      123.22105      1101.3174     -59.572866      7.3081341    
   2105000   300.3283       0.89521947     0.70299045     1.5982099      195.06071      106.74516      181.59966      138.74145     -102.5817      -85.988462      969.60935     -35.048089      80.849343    
   2106000   299.62457      0.89312177     0.70247323     1.595595       195.02697      106.7906       181.54415     -115.13014      266.60581      121.18559      1076.2136     -32.942416     -39.501463    
   2107000   300.25703      0.89500703     0.7027833      1.5977903      195.04441      106.80093      181.45708     -91.932188     -292.74362     -93.634969      802.84645      100.2955       6.065464     
   2108000   299.67278      0.89326548     0.70452619     1.5977917      195.01504      106.79021      181.58681     -198.6069       63.217032     -120.52898      951.38748      8.9093804     -30.584067    
   2109000   300.42517      0.89550822     0.70140693     1.5969151      195.13187      106.73819      181.34388     -404.31073     -233.28361      218.72871      885.69608     -4.7567522      36.417107    
   2110000   300.01556      0.89428724     0.70018898     1.5944762      195.10934      106.79289      181.45811     -154.54215     -178.01631     -73.000018      893.18758      101.79569      96.783765    
   2111000   299.67853      0.89328262     0.70444139     1.597724       195.16196      106.786        181.51084      43.26445      -117.39822     -35.770216      1008.4461     -127.1868      -27.667935    
   2112000   299.95007      0.89409204     0.70099469     1.5950867      195.11381      106.83469      181.49061     -100.94681     -130.46132     -21.13106       759.24699      141.15607     -11.301629    
   2113000   299.9321       0.89403845     0.70341545     1.5974539      195.16539      106.84799      181.40649      152.75373     -456.47994     -43.799913      794.41715      162.13315     -71.394795    
   2114000   300.39224      0.89541006     0.70173059     1.5971406      195.12075      106.79681      181.38764     -8.2549712      209.8237       183.00286      1078.0111      117.73999     -38.568323    
   2115000   300.20051      0.89483853     0.70393563     1.5987742      195.1263       106.85076      181.36539     -261.59432      31.925219     -0.39468973     1023.0991      17.900146      5.6479194    
   2116000   300.04528      0.89437584     0.70319198     1.5975678      195.12979      106.84979      181.37135      98.723517     -203.46657     -13.810676      1137.9599      42.351774      94.902512    
   2117000   299.85877      0.89381988     0.70189031     1.5957102      195.12955      106.87487      181.34407     -250.59652     -126.93492      11.870434      865.50155      49.279976      95.382101    
   2118000   299.91881      0.89399885     0.70575268     1.5997515      195.15062      106.86608      181.3775      -268.72657     -72.230933      114.64912      966.78972     -44.794489      63.648917    
   2119000   299.97432      0.89416432     0.70282889     1.5969932      195.20658      106.82172      181.2407       113.5738       32.209046     -152.37061      1043.2674      49.894252      25.034625    
   2120000   300.16533      0.89473368     0.70278935     1.597523       195.15137      106.83858      181.47474      86.915652      286.63393     -157.79194      1293.3611      8.370178      -69.025846    
   2121000   300.16162      0.89472262     0.70228918     1.5970118      195.19785      106.8713       181.35334      266.91387      82.301282     -121.31214      926.76844      111.52902      34.538614    
   2122000   300.25409      0.89499825     0.70165595     1.5966542      195.17878      106.88605      181.15871      328.5332       85.800243      365.38693      914.86137      5.4583793      100.90249    
   2123000   299.85306      0.89380287     0.70154371     1.5953466      195.14315      106.84303      181.42575      168.12747     -215.54233     -27.069859      887.65536      64.976746     -119.638      
   2124000   300.73033      0.89641782     0.70172075     1.5981386      195.29458      106.92272      181.1538      -208.86456     -39.76376      -23.131745      1053.8242      77.428657     -55.14244     
   2125000   299.90348      0.89395317     0.70418343     1.5981366      195.20143      106.87253      181.23727     -216.51464      177.42847      145.13397      837.18298     -170.78045     -15.484172    
   2126000   299.55229      0.89290631     0.70448263     1.5973889      195.16849      106.92796      181.1372       66.143679     -90.056043     -20.754011      915.69069      32.717549     -22.950957    
   2127000   299.76473      0.89353955     0.70283126     1.5963708      195.2875       106.9243       181.26866      74.51247      -189.35095     -56.533434      1034.7427     -83.079993      35.803627    
   2128000   300.09443      0.89452234     0.70614225     1.6006646      195.34577      106.94271      181.16449     -224.9779      -411.86352     -13.381267      1201.7676      23.687951     -39.603093    
   2129000   299.32735      0.89223582     0.70116142     1.5933972      195.33436      106.91701      181.14596     -74.591905      154.00926      78.352409      1092.1768     -71.280895     -76.377677    
   2130000   300.0489       0.89438662     0.70109865     1.5954853      195.29401      106.92813      181.28716     -154.80917     -246.09913     -180.51065      930.70703      79.174879     -8.6668398    
   2131000   300.12034      0.89459958     0.70497262     1.5995722      195.45172      106.95673      181.04805     -138.469       -67.316593     -141.54365      897.23412     -151.66672     -107.15843    
   2132000   299.83966      0.89376291     0.70397646     1.5977394      195.34396      106.97164      181.18418     -85.245026     -318.0026      -272.81367      924.3071       19.097006     -45.420207    
   2133000   299.89424      0.8939256      0.70398853     1.5979141      195.39866      106.959        181.08726     -200.33053     -8.1743885     -133.18074      1052.243       16.173847      83.943743    
   2134000   299.60551      0.89306497     0.70321513     1.5962801      195.44353      106.88715      181.08447      465.56899      329.44914      238.75594      1162.9746     -19.478054      3.1956268    
   2135000   300.71745      0.89637945     0.70292482     1.5993043      195.32024      106.95312      181.13197     -157.37176      43.171925     -0.96271103     935.43696      91.549907      113.27892    
   2136000   300.32546      0.895211       0.70213806     1.5973491      195.37047      106.97958      181.16104      174.33543      455.74662     -49.201018      819.4972       38.978321      16.78444     
   2137000   300.80661      0.89664522     0.7013169      1.5979621      195.42943      106.8925       181.11683      131.48717      9.6816047     -28.830999      915.70515     -9.190353       42.219503    
   2138000   300.03076      0.89433256     0.70262135     1.5969539      195.48568      106.90101      181.13108     -82.046474     -65.587969     -53.824242      1132.1664      95.468733     -30.908238    
   2139000   299.87204      0.89385943     0.70578438     1.5996438      195.40672      106.97718      181.05773     -40.52385      -113.74728      77.573567      986.24528     -50.91423       48.884567    
   2140000   300.49913      0.89572868     0.70252869     1.5982574      195.25331      106.98611      181.06438     -44.112925      7.7609801      133.4297       998.52391      126.63476      187.8068     
   2141000   300.25011      0.89498638     0.70424407     1.5992304      195.42044      106.98572      181.02011     -222.82753     -99.865383     -240.9199       721.29373     -22.844108      89.573453    
   2142000   299.3834       0.8924029      0.70197924     1.5943821      195.5197       106.96548      181.00513     -15.55972      -40.186704      74.169303      1200.0085      69.810164      80.249931    
   2143000   300.08344      0.89448956     0.70537887     1.5998684      195.44988      106.98005      181.19366     -88.649995     -26.19479      -261.4248       938.23396     -24.671901      49.609437    
   2144000   299.2075       0.89187856     0.70470272     1.5965813      195.50633      107.00285      180.98932     -399.40162      115.90429      3.7129385      961.13631     -150.05521      168.40711    
   2145000   299.73491      0.89345067     0.70430124     1.5977519      195.5464       106.9661       180.86446     -213.84714      112.56767      35.209249      971.25136     -166.92805      73.368448    
   2146000   300.49363      0.89571227     0.70487961     1.6005919      195.52899      106.97387      181.13277      29.208319      210.08154      21.749711      997.01499     -89.500707      210.81894    
   2147000   299.75622      0.89351421     0.70231845     1.5958327      195.55775      107.03794      180.82339      99.45228      -38.534815      95.24096       1073.2932     -180.54789      108.63819    
   2148000   300.27274      0.89505385     0.70283715     1.597891       195.54026      107.05699      180.89139      113.55363      5.2770787     -7.6227945      956.67485      113.51205      132.07042    
   2149000   300.22699      0.89491748     0.70342305     1.5983405      195.52148      107.05344      180.85589      133.53687     -55.274453     -3.2341213      731.24992     -24.015366      74.589857    
   2150000   300.81046      0.89665667     0.70231272     1.5989694      195.48776      106.99254      180.86403      238.97153      174.43033     -40.529607      1039.1123      98.242199      65.876298    
   2151000   299.92233      0.89400935     0.70337648     1.5973858      195.51811      107.05722      180.91879      6.2530957      79.920001      124.66694      1138.033      -63.987408      87.008883    
   2152000   299.83172      0.89373926     0.70457143     1.5983107      195.73569      107.0049       180.85126     -3.7171518      135.07711     -42.727764      804.03384      11.183948     -164.5245     
   2153000   300.00024      0.89424156     0.70417876     1.5984203      195.8087       107.00926      180.74641      405.68147      35.235359      215.73632      963.06882      215.60982      8.2239845    
   2154000   300.4312       0.89552617     0.70341544     1.5989416      195.59281      107.02424      180.8852      -249.32354     -112.72768     -277.92712      1063.3197     -2.9230067      134.81451    
   2155000   300.52945      0.89581903     0.7029819      1.5988009      195.60822      107.08542      180.84862     -167.48406     -171.47483     -93.318442      840.1715      -168.20633      33.646618    
   2156000   299.94853      0.89408744     0.70765349     1.6017409      195.79637      107.06016      180.75725      94.332408     -207.20036      86.484881      999.54412     -32.303402      203.92114    
   2157000   299.93005      0.89403235     0.70262519     1.5966575      195.51529      107.05445      180.85256      188.13413      44.791699      37.678302      760.80828      195.71228      36.095608    
   2158000   299.7653       0.89354126     0.70231794     1.5958592      195.72272      107.09111      180.67551     -316.18818     -390.43144     -67.260488      753.57973     -124.30562      212.03414    
   2159000   299.6921       0.89332306     0.70465399     1.597977       195.64437      107.04879      180.75829     -81.712376      327.80715     -152.11468      1207.1793     -41.487249      28.620664    
   2160000   299.65008      0.8931978      0.70456718     1.597765       195.76159      107.05661      180.66634      6.3935553      216.91864      158.46254      1060.0276     -10.533339      95.00982     
   2161000   300.12112      0.89460189     0.70486444     1.5994663      195.72648      107.11187      180.60532      143.88763     -134.04216      180.15981      909.2539      -27.822603      76.481976    
   2162000   299.26182      0.89204048     0.70510661     1.5971471      195.53961      107.17187      180.75237     -54.071678      3.7781264      10.180097      883.00523      112.77642      191.67897    
   2163000   300.61439      0.89607222     0.7026241      1.5986963      195.76714      107.14241      180.5526      -46.117506     -24.864209     -102.66128      919.6034      -83.756544      58.904962    
   2164000   300.16883      0.89474411     0.70636814     1.6011122      195.81337      107.08945      180.63395      152.9815      -221.137       -117.98128      697.64521     -2.4203395      181.295      
   2165000   300.19267      0.89481518     0.70511767     1.5999329      195.78663      107.02931      180.74457      226.181        278.7383       159.8477       1066.0225     -16.75403       21.518679    
   2166000   300.61713      0.89608039     0.70440375     1.6004841      195.8874       107.07796      180.53933      23.675938     -263.44927      159.60839      1120.264       59.617676      100.24654    
   2167000   300.04895      0.89438678     0.70436331     1.5987501      195.67846      107.15452      180.62188     -230.78039      317.14773     -186.25479      1047.7595     -58.118837      92.969103    
   2168000   299.70384      0.89335806     0.70426487     1.5976229      195.72651      107.10509      180.53212      135.82011      0.00056615269 -32.968427      991.59962      177.23133      91.814016    
   2169000   300.14445      0.89467144     0.70570835     1.6003798      195.80249      107.04929      180.59586      467.51836      154.55872      31.137093      1095.9219     -25.859243      50.867092    
   2170000   299.22131      0.89191974     0.70399897     1.5959187      195.94383      107.12031      180.46738     -147.67081      202.06579      33.57614       881.77765      2.6317926      130.71322    
   2171000   300.2527       0.89499409     0.70424292     1.599237       195.84198      107.05498      180.55296      51.125326      199.17836     -154.63705      823.00894     -71.068572      78.461134    
   2172000   300.27361      0.89505643     0.70407563     1.5991321      195.85986      107.15707      180.43757      99.412576      290.32442      90.639319      1039.1645     -148.51213      61.852381    
   2173000   299.54202      0.8928757      0.70711234     1.599988       195.98936      107.17735      180.44582      61.721824     -8.8321566      178.71309      829.89697     -7.5225906     -4.7140997    
   2174000   299.75528      0.89351138     0.70517348     1.5986849      195.99434      107.11483      180.48222     -121.78244     -8.0114331     -84.229078      917.79655      22.461271      129.29353    
   2175000   300.1192       0.89459618     0.70483286     1.599429       195.96523      107.13029      180.50141     -36.289537      169.5279      -153.69773      871.79525     -41.802891      77.765257    
   2176000   299.76754      0.89354793     0.70338691     1.5969348      195.91189      107.14026      180.57901     -67.041403     -59.494429     -193.65481      728.87462     -99.184635      106.85653    
   2177000   300.28669      0.89509542     0.70585991     1.6009553      195.92444      107.20324      180.48787      232.12267      79.963162      31.106918      1172.8091      10.326646      130.43369    
   2178000   300.54065      0.89585243     0.70560744     1.6014599      196.02163      107.17607      180.35421     -152.4864       228.98243      168.13929      868.14898     -88.022011      35.107127    
   2179000   299.80801      0.89366856     0.70645151     1.6001201      196.03824      107.15161      180.46751     -399.83789     -20.218044      47.681406      995.85832     -84.488117      71.179766    
   2180000   299.43905      0.89256879     0.70555853     1.5981273      195.91532      107.23686      180.40582     -106.57647      35.561119     -12.294141      1120.6044     -29.591225      285.83821    
   2181000   300.12177      0.89460384     0.70336959     1.5979734      196.02217      107.17034      180.37789      153.50543      164.56595     -51.786038      733.16604     -73.713311      93.646958    
   2182000   300.45388      0.89559377     0.70395918     1.599553       196.00537      107.14025      180.53382     -81.098789     -190.33077      20.297446      861.01806     -2.4958127      36.373173    
   2183000   300.41839      0.89548798     0.70499608     1.6004841      196.01201      107.16979      180.31692     -18.06092      -20.850508      25.524908      896.77794      140.83955      58.750922    
   2184000   300.52987      0.8958203      0.70636432     1.6021846      196.06366      107.13307      180.35153      76.546525      38.579812     -152.58855      744.82354      55.631103      122.44771    
   2185000   300.17454      0.89476112     0.70594489     1.600706       196.04666      107.17029      180.25311     -278.87109      325.04331     -79.08798       1159.1043      40.442201      7.0229666    
   2186000   300.16941      0.89474585     0.70347801     1.5982239      196.14433      107.14253      180.41674     -38.195939     -172.87523     -89.556541      897.00855     -103.08853      63.826018    
   2187000   299.85453      0.89380725     0.70383318     1.5976404      196.07115      107.15162      180.30429     -60.295125      149.88493      141.14779      1003.598      -28.285467     -25.219175    
   2188000   299.97218      0.89415792     0.70579019     1.5999481      196.04459      107.18978      180.11415     -169.81215     -17.595535      0.48433431     980.32878      79.774522     -69.400929    
   2189000   300.11119      0.89457229     0.70509444     1.5996667      196.04364      107.22732      180.24509      258.11453     -248.07921      93.159599      887.21213     -194.2672       109.86176    
   2190000   300.46287      0.89562059     0.70429422     1.5999148      196.13043      107.18153      180.13822      357.80639     -67.898274     -196.59424      1218.9594      89.583625      206.35919    
   2191000   300.2896       0.89510409     0.70498936     1.6000934      196.10362      107.2315       180.15103      164.51045     -241.44432     -50.081441      1084.6746     -135.59768      177.35311    
   2192000   299.69403      0.89332882     0.70498958     1.5983184      196.13394      107.2377       180.17759     -334.39586      139.80707      120.92183      973.87652      14.786035      33.858075    
   2193000   299.93177      0.89403748     0.70324202     1.5972795      196.10803      107.22785      180.15178      138.80011     -133.8365       141.70823      1028.4697      83.295423      54.630497    
   2194000   299.70293      0.89335535     0.70318648     1.5965418      196.03214      107.25966      180.23759     -185.05897     -365.02899     -24.028159      993.17265     -40.261473      146.26172    
   2195000   299.97425      0.89416411     0.7074117      1.6015758      196.14869      107.23395      180.1609      -80.598072      248.79013      88.060547      914.91692     -94.975579      143.63127    
   2196000   299.77984      0.89358461     0.70623926     1.5998239      196.27458      107.23229      180.1855       120.05593      524.04778      50.860346      776.87999     -52.193805      188.33187    
   2197000   299.06834      0.89146376     0.70480887     1.5962726      196.29442      107.24809      180.07184      60.239418      46.729713      21.096886      894.69477      89.548406      140.9786     
   2198000   300.4944       0.89571456     0.70606473     1.6017793      196.23648      107.22396      180.26814      46.062177      175.12228     -100.21613      743.52474      168.58023      102.52215    
   2199000   300.20524      0.89485265     0.70483994     1.5996926      196.16312      107.22555      180.13565      67.027728      14.555406     -7.6827908      1200.5898      41.47106       154.36046    
   2200000   299.91124      0.89397628     0.70341159     1.5973879      196.23075      107.29798      179.99692      59.134918     -33.37241      -112.6975       866.17932      124.6864       139.4817     
   2201000   300.51414      0.89577341     0.70450773     1.6002811      196.11146      107.25997      179.96989     -141.99006     -11.879891      23.521284      981.06914     -40.507742      61.853174    
   2202000   300.6216       0.89609371     0.70355783     1.5996515      196.28479      107.20727      180.06289      102.88965      134.06443      66.346976      920.91584      11.727666      157.80866    
   2203000   299.53792      0.89286348     0.70627332     1.5991368      196.36633      107.28265      179.87587      15.551501      41.482907      191.36973      1020.1618     -32.014931      6.3065854    
   2204000   299.52022      0.89281074     0.70365429     1.596465       196.3787       107.2614       180.00262     -363.13451     -5.8797185     -133.81939      1156.4394      24.119557      125.73466    
   2205000   300.12846      0.89462377     0.70654128     1.6011651      196.35893      107.23965      179.96692     -171.78003      90.750285     -201.37814      828.17413      67.519321      74.01975     
   2206000   300.10428      0.8945517      0.70619801     1.6007497      196.28833      107.22554      180.007        27.101098     -292.88201      114.00932      1021.6613     -157.07999      89.752388    
   2207000   300.28216      0.89508193     0.70593515     1.6010171      196.39994      107.25604      179.95574     -233.08011      7.6695487     -67.820739      1034.5416      133.17473      37.608267    
   2208000   299.99642      0.89423017     0.70383008     1.5980603      196.45881      107.34391      179.84868      44.182427     -45.352546      61.125662      697.90501      0.89292297     51.550178    
   2209000   299.83699      0.89375496     0.70454757     1.5983025      196.39236      107.33147      179.89173      34.625067     -202.64476     -25.730669      1002.5971     -61.944214      104.86268    
   2210000   299.68838      0.89331197     0.70525865     1.5985706      196.45682      107.27439      180.01928      126.26351      68.995504     -74.32264       1070.0178     -42.252875      150.94517    
   2211000   300.35046      0.89528552     0.7030928      1.5983783      196.46313      107.30204      179.90923      209.80401     -133.81838      124.37084      994.69846     -132.06541      135.9246     
   2212000   300.02749      0.8943228      0.70517565     1.5994984      196.51743      107.31595      179.9529       311.79247     -246.89548     -9.9021472      770.44922      87.357294      151.97326    
   2213000   299.91295      0.89398139     0.70431697     1.5982984      196.46305      107.33508      179.85381      64.248937     -12.380755     -53.441199      1071.362       79.626945      280.78777    
   2214000   300.5562       0.89589878     0.70594158     1.6018404      196.56917      107.31715      179.86022      149.24253      298.91784      55.821678      904.03841      122.7448       28.949422    
   2215000   299.84962      0.89379262     0.70635911     1.6001517      196.53677      107.3541       179.81207     -205.55269     -323.51456     -80.678686      922.4412      -4.176418       140.24726    
   2216000   299.58787      0.89301238     0.70632664     1.599339       196.51572      107.39916      179.93495      260.05666     -37.242368      13.657804      1024.0078      126.41046      73.816652    
   2217000   300.10944      0.89456707     0.70694365     1.6015107      196.58887      107.3789       179.82609      257.80694     -205.49109      75.4943        771.81505      28.410587      180.30114    
   2218000   299.42255      0.8925196      0.70660242     1.599122       196.70269      107.34763      179.7642      -213.10703     -34.399085     -75.858881      1096.5091     -123.86967      86.071305    
   2219000   300.31769      0.89518782     0.70573479     1.6009226      196.72109      107.36383      179.67542      203.98942      251.33974      105.91951      956.03255      107.43203      202.69032    
   2220000   299.84016      0.89376442     0.70510646     1.5988709      196.76816      107.41681      179.65063      87.018572     -188.62576      192.11628      600.39333     -10.173574      16.582182    
   2221000   299.89185      0.89391848     0.70378384     1.5977023      196.74835      107.39552      179.70528      222.88388      4.3212883      1.4185227      1067.5139      115.11726      223.61294    
   2222000   299.84778      0.89378713     0.70574531     1.5995324      196.62472      107.38385      179.8263       91.735041     -395.17537     -251.2334       734.99583      28.056267      188.41874    
   2223000   299.81202      0.89368054     0.70689034     1.6005709      196.76385      107.3977       179.57465      63.864202      115.97107     -11.676761      1138.9002      86.751281      197.923      
   2224000   299.76009      0.89352573     0.70687347     1.6003992      196.77111      107.40624      179.62054     -3.226327       64.196345      118.54179      901.36942     -37.967524      52.485438    
   2225000   300.03244      0.89433754     0.70835326     1.6026908      196.8224       107.39132      179.81153      122.14669     -33.526196      56.923507      1031.4874      21.318329      149.09071    
   2226000   299.82082      0.89370677     0.70727914     1.6009859      196.84884      107.43074      179.57805      104.99138     -251.54303     -19.017583      1035.5855      174.07139      187.65134    
   2227000   299.50874      0.89277652     0.70571548     1.598492       196.86609      107.3885       179.64243     -88.551031     -28.740072     -35.788302      867.27855      90.354767      237.76942    
   2228000   300.14484      0.89467261     0.70638904     1.6010616      196.92525      107.40347      179.54063      21.326869      5.9090963      111.09735      1008.0973      1.1324503      240.35504    
   2229000   300.01448      0.89428403     0.70720576     1.6014898      196.87038      107.42769      179.53106     -328.81419      189.13108     -220.64214      895.34942      105.703        89.539831    
   2230000   300.57951      0.89596828     0.70646588     1.6024342      196.87592      107.38784      179.60677     -235.74977      115.52866     -48.456761      1099.3804      53.369594      127.20996    
   2231000   300.12971      0.89462751     0.70575531     1.6003828      196.95966      107.39632      179.39277     -227.98549      23.417998      24.025635      878.81717      90.287713      139.76088    
   2232000   300.54278      0.89585878     0.70807003     1.6039288      196.85158      107.42323      179.52625      119.08264     -377.71448     -57.565804      1012.7973     -40.085204      73.902999    
   2233000   300.0696       0.89444832     0.70462892     1.5990772      196.91155      107.3651       179.46567      158.51315      129.07358      13.612258      1036.6452      26.111242      187.71579    
   2234000   300.62398      0.89610083     0.70770053     1.6038014      196.82612      107.47781      179.56309      279.35103     -150.47943     -15.036671      855.08633     -44.787033      164.36242    
   2235000   299.57868      0.89298498     0.70738807     1.6003731      196.8723       107.40203      179.56584      152.91132      35.804563      114.72592      869.63323      91.133786      140.27727    
   2236000   300.14311      0.89466744     0.70623701     1.6009044      196.97099      107.41295      179.53634     -272.91698      198.67256     -27.928059      735.10369     -16.403013      121.47378    
   2237000   299.76831      0.89355024     0.70699086     1.6005411      196.99831      107.40077      179.43204     -5.0109037      133.62486     -39.473932      750.18363     -41.225915      92.264054    
   2238000   300.07501      0.89446444     0.70401803     1.5984825      196.9074       107.41109      179.41807     -191.88295     -111.03969      6.7054908      788.72377     -92.153565      70.100964    
   2239000   299.82618      0.89372273     0.70638105     1.6001038      196.92616      107.56404      179.35528      251.91491     -93.745499      42.063692      780.73284     -77.969348      190.38908    
   2240000   300.06851      0.89444508     0.7066514      1.6010965      197.06864      107.47837      179.35457      100.23048      308.87959      64.073591      860.99646      39.753927      0.10692525   
   2241000   300.10917      0.89456627     0.70452478     1.5990911      196.96357      107.47429      179.35492     -291.69954      86.097065      40.988948      903.7429       45.40438       158.80749    
   2242000   300.43931      0.89555035     0.70576814     1.6013185      197.04813      107.51932      179.29342     -93.655331     -256.29206     -168.30395      954.23623      71.283189      247.32796    
   2243000   299.7259       0.89342381     0.70683309     1.6002569      197.09416      107.52386      179.27094     -34.433223     -104.6505      -13.07255       809.75635     -61.873247      70.022087    
   2244000   300.10179      0.89454427     0.70809965     1.6026439      197.03791      107.50485      179.38469     -135.83566     -44.040862      206.48863      924.78798     -49.851358      119.83103    
   2245000   300.71394      0.89636897     0.70658411     1.6029531      197.01972      107.47007      179.20237     -362.52261     -81.738702     -21.70184       821.17474      1.2208759      140.08406    
   2246000   300.65333      0.89618832     0.70585151     1.6020398      197.03319      107.46842      179.11801      196.32954      238.36583      223.29393      1097.8469     -109.08119      255.91483    
   2247000   300.47848      0.89566712     0.70518777     1.6008549      197.01772      107.42926      179.30074      188.40624     -125.09429      129.97257      704.09089     -52.682917      234.63088    
   2248000   299.34631      0.89229233     0.70853239     1.6008247      197.10201      107.52173      179.26462     -70.057793      264.27033      337.01708      931.35341     -6.7190482      169.4605     
   2249000   299.72022      0.8934069      0.70697291     1.6003798      197.05011      107.47035      179.29082     -201.56014      66.250896     -49.75267       912.17455      33.771648      196.65952    
   2250000   299.56342      0.89293949     0.70674619     1.5996857      197.14282      107.47631      179.31585      122.16129      274.47321      28.205117      733.03282      60.035574      107.1028     
   2251000   300.31797      0.89518868     0.7085547      1.6037434      197.07712      107.53571      179.06981     -7.997347      -108.84361      123.96506      932.53752     -141.7719       214.33468    
   2252000   300.03017      0.8943308      0.70611963     1.6004504      197.15367      107.52628      179.25289      158.41944     -209.30385      21.431671      1004.7986      2.919702       118.43433    
   2253000   300.13214      0.89463473     0.70772824     1.602363       197.25106      107.47549      179.10982      225.42852      207.83252     -92.424652      830.40193      40.26118       334.19838    
   2254000   300.709        0.89635426     0.70802995     1.6043842      197.22962      107.52927      179.14313     -30.519164      95.005881     -203.11521      1056.6708      21.797565      205.11005    
   2255000   299.95484      0.89410626     0.70870718     1.6028134      197.21861      107.58266      179.09953     -325.3782      -62.986156     -265.49349      977.26192     -14.579194      133.91619    
   2256000   299.90072      0.89394493     0.70865826     1.6026032      197.3209       107.51999      179.09636     -90.437291     -162.00612     -36.753829      1047.2166     -140.03947      141.87655    
   2257000   299.3271       0.89223508     0.70705659     1.5992917      197.41659      107.55687      178.99046      226.4319       285.2241      -160.79222      814.96882      63.522778      72.283713    
   2258000   299.84538      0.89377997     0.70642124     1.6002012      197.29233      107.53317      179.11318      106.32645     -124.59932     -151.85194      868.37002      39.49985       159.79041    
   2259000   299.59845      0.89304391     0.70630968     1.5993536      197.40761      107.57777      178.94595     -457.19222     -271.34822     -35.959959      829.92014      198.46732      127.78749    
   2260000   300.35492      0.89529879     0.71089437     1.6061932      197.30687      107.54365      179.07676     -142.24165     -299.55038     -96.75287       819.18446     -121.24093      238.83497    
   2261000   300.28278      0.89508377     0.70566875     1.6007525      197.31708      107.51946      179.11244      7.5566549      285.15768      31.720804      871.26149      59.17611       139.52346    
   2262000   299.84851      0.89378931     0.70688709     1.6006764      197.25072      107.62182      178.89317      161.09849     -125.93227     -176.16604      819.24935     -13.877205      122.68424    
   2263000   300.21907      0.89489385     0.70526447     1.6001583      197.39405      107.53016      178.86307     -256.3563       141.24795      270.26896      1012.3823     -46.309992      91.016356    
   2264000   299.88568      0.8939001      0.70761527     1.6015154      197.50143      107.57206      178.82308      116.09369      64.736789      50.046956      651.15032      64.698015      198.5037     
   2265000   300.48065      0.89567359     0.70832462     1.6039982      197.58594      107.55866      178.85715     -61.664317     -123.51433     -158.62433      961.38446     -199.62714      202.21785    
   2266000   300.37987      0.89537318     0.70641022     1.6017834      197.36527      107.64926      178.94423      46.075718      129.32844     -72.00536       810.09355     -8.1329763      185.92894    
   2267000   300.59438      0.89601258     0.70600868     1.6020213      197.40532      107.5508       178.78704     -262.87412      1.8298438      156.51872      768.90954      27.81617       267.27824    
   2268000   300.14585      0.89467561     0.70756753     1.6022431      197.44543      107.57029      178.7959      -5.6973429      39.560007     -137.35025      957.33591     -46.709852      292.32619    
   2269000   300.56226      0.89591685     0.70562673     1.6015436      197.57254      107.59671      178.78991     -28.457775     -37.516455      90.26673       828.31209      49.689202      112.79559    
   2270000   299.76443      0.89353867     0.70662048     1.6001592      197.51093      107.56665      178.78385     -225.64562      107.28015     -74.049567      956.21177      63.296382     -0.68705239   
   2271000   299.98278      0.89418954     0.70659684     1.6007864      197.56548      107.6096       178.68032     -20.741352      59.327004     -114.42207      753.55401     -158.40871      82.324212    
   2272000   300.04515      0.89437545     0.70847648     1.6028519      197.55779      107.58976      178.69711      181.62576      320.24883      45.949533      824.4826      -66.354411      134.8235     
   2273000   299.32315      0.89222332     0.70849615     1.6007195      197.63148      107.61748      178.61167     -79.325727     -56.49368      -126.79497      793.53716      50.801158      138.03968    
   2274000   299.68611      0.89330521     0.70738494     1.6006902      197.83377      107.6128       178.34529     -137.37003     -278.15094      111.19127      971.14406      53.58075       180.75431    
   2275000   300.29675      0.89512542     0.70856106     1.6036865      197.71641      107.61913      178.5395       66.185786     -16.366825      59.968219      960.60115     -10.138444      226.71366    
   2276000   300.12804      0.89462252     0.7078352      1.6024577      197.78745      107.54631      178.57499     -250.46776     -101.98375      29.141138      537.47166     -55.150052      107.52865    
   2277000   299.25512      0.89202052     0.70957825     1.6015988      197.74757      107.59617      178.52736     -168.86658     -55.250374      88.571318      796.77947     -38.15033       228.49091    
   2278000   299.51364      0.89279111     0.70924891     1.60204        197.78133      107.64179      178.46882      210.96856     -271.11159      37.315477      856.48806      180.46144      58.495233    
   2279000   300.69524      0.89631322     0.70598853     1.6023018      197.53         107.67827      178.60644      139.36739     -28.232567     -155.51219      1124.537      -108.72841      151.59679    
   2280000   299.82194      0.89371011     0.7075086      1.6012187      197.68983      107.62918      178.38753      158.6408      -111.54073      69.790068      1028.1157      87.53037       219.85032    
   2281000   299.48577      0.89270804     0.7058566      1.5985646      197.91444      107.65239      178.41653     -198.87737     -300.91217      5.5231405      728.0429       27.685233      190.16239    
   2282000   300.46322      0.89562163     0.70582739     1.601449       197.92668      107.63219      178.41648     -305.19886     -150.96163     -65.316373      759.59071      8.3013498      84.849592    
   2283000   300.19714      0.8948285      0.70710198     1.6019305      197.92005      107.67985      178.37135      24.865238     -210.27848     -34.896889      722.62607      40.604579      306.28736    
   2284000   300.12003      0.89459864     0.70792862     1.6025273      197.91446      107.76543      178.4578      -442.75543     -248.10719     -195.34181      851.66091     -54.908148      127.77161    
   2285000   300.46533      0.89562791     0.70547932     1.6011072      197.88951      107.69927      178.2771      -219.8918      -259.54528      9.3130173      766.05002     -141.97859      61.891657    
   2286000   299.60718      0.89306994     0.70788782     1.6009578      197.97319      107.70066      178.20994      237.53395      91.989598      161.04148      446.19194      57.509645      185.33952    
   2287000   300.18202      0.89478344     0.70869715     1.6034806      197.93327      107.70087      178.25882     -49.754366     -185.00853     -154.81282      808.56413     -12.542616      195.50689    
   2288000   300.27982      0.89507493     0.70493736     1.6000123      197.99704      107.67338      178.19673     -151.04502      43.743606      143.96799      736.1383       155.47601      147.5364     
   2289000   299.95265      0.89409971     0.70818752     1.6022872      198.01015      107.61804      178.21691     -188.32353      112.7235      -23.499524      896.0382       96.263497      109.31165    
   2290000   299.91894      0.89399925     0.70668104     1.6006803      198.02257      107.65304      178.22481      187.33864      74.953819      81.768947      919.34062      44.052772      117.07881    
   2291000   299.56609      0.89294746     0.7070347      1.5999822      198.15684      107.64987      178.08713      281.48375     -95.942078     -22.849324      873.17854      56.500847      145.86075    
   2292000   300.05828      0.89441458     0.7074212      1.6018358      198.04689      107.67075      178.18889      201.90662      180.06807      102.51257      820.95468      155.96149      281.20615    
   2293000   299.97077      0.89415374     0.70739591     1.6015496      197.97756      107.72499      178.14887     -266.57737     -25.039182     -56.683253      864.70167      61.651723      191.58856    
   2294000   300.43598      0.89554043     0.70594082     1.6014813      198.03437      107.6865       178.2786       253.89783     -22.262497      125.27896      902.66913     -136.46136      363.66665    
   2295000   299.50688      0.89277098     0.70668249     1.5994535      198.12836      107.68935      178.15209      280.39464      58.872955     -119.93659      920.59593     -14.902259      125.97654    
   2296000   300.40078      0.8954355      0.70854261     1.6039781      198.10512      107.7976       177.96608     -129.79639     -450.73408      168.19818      947.53809     -12.950421      65.53657     
   2297000   299.71165      0.89338134     0.70807003     1.6014514      198.29375      107.69736      178.07083      14.009056      331.10169     -72.492237      708.26125     -122.66143      147.77403    
   2298000   300.0937       0.89452015     0.70649354     1.6010137      198.23352      107.69425      178.15782     -152.72201     -78.341633     -192.26644      888.76799     -170.46805      218.54948    
   2299000   299.86194      0.89382932     0.70704966     1.600879       198.18329      107.74601      178.07356     -172.1029       366.84973     -32.044144      595.70403      46.185602      103.38163    
   2300000   300.0529       0.89439854     0.70766419     1.6020627      198.21057      107.76361      178.07328     -64.316186     -140.95272      9.5722702      817.32211     -45.925502      231.23532    
   2301000   299.99542      0.8942272      0.71003677     1.604264       198.30036      107.6338       178.15492     -75.580959     -27.913266      162.49836      790.29242     -40.056285      191.37333    
   2302000   300.37683      0.89536412     0.70831911     1.6036832      198.37266      107.71746      178.02287     -191.49923      275.37858     -44.475506      798.25746      84.321949      215.31671    
   2303000   300.61226      0.89606588     0.70839236     1.6044582      198.41501      107.77447      178.03016     -309.00095     -50.701018     -4.0155725      666.19947     -39.534911      154.89174    
   2304000   299.96729      0.89414334     0.70647941     1.6006228      198.27218      107.73234      177.95665      95.821797     -20.653144     -66.700436      840.98442     -150.3894       163.41543    
   2305000   300.46844      0.89563719     0.70706065     1.6026978      198.26185      107.74031      177.86909     -202.78136      105.61737     -22.90368       911.6405       32.730752      264.96639    
   2306000   300.50669      0.89575121     0.7066689      1.6024201      198.37454      107.70277      177.90972      54.206611      130.82729     -140.35756      749.20443      49.185824      209.53649    
   2307000   299.99815      0.89423536     0.70810054     1.6023359      198.38034      107.78795      177.89453      243.93801      169.86529      104.44023      1049.0122     -17.026354      151.9604     
   2308000   299.63999      0.89316775     0.70767496     1.6008427      198.46097      107.72133      177.8168      -129.49039     -196.77221     -147.21667      740.8018       28.191898      163.62385    
   2309000   300.55736      0.89590224     0.70701733     1.6029196      198.32343      107.73075      177.86276     -221.7254      -137.18944     -159.25844      1027.3002      20.750993      124.99789    
   2310000   300.28184      0.89508096     0.70801226     1.6030932      198.37608      107.7282       177.73613     -148.15706     -125.52837     -208.65365      1037.1715      66.153686      223.84416    
   2311000   300.12007      0.89459878     0.7084803      1.6030791      198.36361      107.75431      177.88389     -202.74341     -282.47725     -256.7431       907.42964     -39.446375      133.92251    
   2312000   299.67471      0.89327124     0.70748766     1.6007589      198.32084      107.79536      177.915       -71.707487     -212.18156      10.794752      953.3295       48.59479       270.31423    
   2313000   300.40422      0.89544575     0.70690698     1.6023527      198.47789      107.82215      177.74547      161.04139      0.9396092      74.568233      757.75026     -46.211844      144.96784    
   2314000   300.26572      0.89503293     0.70664817     1.6016811      198.53983      107.82218      177.71918     -245.62105     -95.643443      201.84364      810.66597      58.703393      181.97742    
   2315000   299.98687      0.89420171     0.70757931     1.601781       198.53438      107.83132      177.68753     -86.05418      -132.60698     -24.221662      743.689       -60.42994       176.95228    
   2316000   299.60039      0.8930497      0.70688424     1.5999339      198.33286      107.7592       177.84614     -121.78064      24.452488      347.60068      749.92847      131.69691      307.57886    
   2317000   299.59416      0.89303114     0.70769819     1.6007293      198.49316      107.793        177.69473     -95.781702      192.96151     -52.855668      921.36053      141.05907      162.45731    
   2318000   299.95019      0.89409238     0.706807       1.6008994      198.58469      107.81348      177.55987     -208.54205      244.8793       24.921985      874.6223      -18.602976      142.83062    
   2319000   299.90292      0.89395147     0.70808461     1.6020361      198.50399      107.7853       177.64972      20.718832     -21.421305     -179.1752       705.6946      -4.609475       318.86472    
   2320000   299.81589      0.89369207     0.70740253     1.6010946      198.70107      107.88087      177.33547      322.17734     -136.82851     -11.670536      856.23619     -52.701901      156.08718    
   2321000   300.55199      0.89588622     0.70789525     1.6037815      198.70011      107.80263      177.66637     -60.862994     -27.21464       6.8086735      1030.2272      45.890436      255.46761    
   2322000   299.79925      0.89364246     0.709186       1.6028285      198.701        107.81037      177.42377     -351.39436     -203.79079     -36.74225       816.09658      65.509111      159.8809     
   2323000   300.31064      0.89516682     0.70649364     1.6016605      198.625        107.80137      177.46732     -265.91415      131.17208     -113.65473      884.29561     -64.804385      93.243901    
   2324000   300.21813      0.89489105     0.70906156     1.6039526      198.74468      107.84211      177.59552      149.37202      58.759502      173.93899      842.28803     -70.741705      175.80474    
   2325000   300.20382      0.89484839     0.70858561     1.603434       198.83442      107.86635      177.24237     -327.80579     -12.557973     -256.93234      702.61034     -19.463049      154.68372    
   2326000   300.8177       0.89667826     0.70721324     1.6038915      198.77608      107.88748      177.19012      185.2062       201.29297      64.091709      821.89201     -27.895213      1.1735591    
   2327000   299.77781      0.89357854     0.70680374     1.6003823      198.7657       107.83152      177.45078      13.052664     -395.75789     -223.18305      793.49341      61.306147      117.76238    
   2328000   299.67465      0.89327106     0.70807581     1.6013469      198.8405       107.85153      177.28152     -101.58743     -200.19674      125.54606      931.74886     -155.07567      155.71012    
   2329000   299.36338      0.89234322     0.70834408     1.6006873      198.98392      107.83263      177.15493      15.943316      215.16252     -89.347444      687.29316      128.45758      128.73346    
   2330000   299.77617      0.89357366     0.70667908     1.6002527      199.07192      107.85868      177.01939      276.33514      158.34755      140.10202      819.29564      201.18912      179.6432     
   2331000   299.76993      0.89355506     0.70496725     1.5985223      199.09564      107.8958       177.0214       297.80589     -252.02612     -76.921706      902.7277       163.2861       256.04614    
   2332000   300.10586      0.89455641     0.7084368      1.6029932      199.25285      107.81645      176.92452     -77.629435      439.67042     -155.64827      870.7101      -67.126484      8.2876547    
   2333000   299.73176      0.8934413      0.7083499      1.6017912      199.17207      107.8608       176.93457      86.708623      311.79786     -54.062804      693.87128      126.67609      232.74178    
   2334000   299.50914      0.89277769     0.70620218     1.5989799      199.37061      107.85895      176.81129     -359.92248     -84.93287       38.760846      730.8179      -42.196067      162.06379    
   2335000   299.71595      0.89339417     0.70483173     1.5982259      199.34135      107.8602       176.78179      121.97336     -138.37219      20.310407      766.67545     -12.900367      344.50065    
   2336000   300.54779      0.8958737      0.70642668     1.6023004      199.31571      107.92507      176.61519      72.696072      46.733099      91.490864      835.49771      115.69493      216.0443     
   2337000   300.03212      0.89433662     0.70909136     1.603428       199.36184      107.9124       176.70424     -188.17908     -245.57655     -133.65893      812.24757      25.699913      354.33907    
   2338000   299.81626      0.89369316     0.70597105     1.5996642      199.3825       107.90827      176.7415       119.00193     -145.95374      107.50123      845.68894      40.174949      256.01576    
   2339000   299.75521      0.89351118     0.70693036     1.6004415      199.41084      107.90893      176.41853      104.21947     -106.3875       26.665286      889.16834     -136.58156      115.53235    
   2340000   299.88169      0.89388819     0.70655067     1.6004389      199.544        107.89091      176.51858     -31.54593       174.57989     -116.03577      845.84902     -13.424255      177.92067    
   2341000   299.48557      0.89270746     0.70403895     1.5967464      199.52844      107.9181       176.29894     -387.86915      418.44698      14.154264      777.37652      11.472855      189.24773    
   2342000   299.59896      0.89304545     0.70752205     1.6005675      199.59859      107.90296      176.3561      -15.364463      244.61183      185.45437      809.86741     -84.338739      269.90222    
   2343000   300.0527       0.89439795     0.70525645     1.5996544      199.63377      107.92801      176.40058     -24.763382     -337.13517     -68.547752      783.40186     -14.240405      242.55183    
   2344000   299.63823      0.8931625      0.70426597     1.5974285      199.63809      107.92942      176.17193      150.04994      101.96051     -32.942613      686.87107     -29.175715      164.69481    
   2345000   300.1968       0.89482747     0.70551531     1.6003428      199.70769      107.89965      176.16736      166.5375      -103.50194     -3.9903567      944.98113     -64.993119      69.939729    
   2346000   300.24922      0.89498374     0.70572421     1.600708       199.76315      107.87203      176.11191      104.48524      414.56598     -18.108271      772.82724     -78.487574      47.500668    
   2347000   300.33055      0.89522616     0.70570909     1.6009352      199.78997      107.96782      176.11008      33.044444     -114.39192      159.62986      771.3685      -64.223296      182.5072     
   2348000   300.5282       0.89581533     0.70516072     1.6009761      199.82216      107.97267      175.90015      66.783415     -111.18663      94.544605      768.09028     -17.260418      138.05088    
   2349000   300.13506      0.89464345     0.70777178     1.6024152      200.00614      107.91773      175.91152     -46.559483     -159.07472      120.76971      607.49311      9.8470006      32.473527    
   2350000   300.11366      0.89457965     0.70603794     1.6006176      199.89405      107.97787      175.93968     -183.99117     -88.333954     -178.50169      826.86201     -147.92877      167.64153    
   2351000   299.10599      0.89157599     0.70591495     1.5974909      199.93582      107.97074      176.01799      139.51718     -102.46793     -86.271418      749.18256     -86.901297      202.58924    
   2352000   300.04756      0.89438263     0.70400949     1.5983921      199.80434      107.94457      176.07777     -255.93511      105.49762      158.12537      706.67152      100.20229      158.54137    
   2353000   301.02925      0.89730886     0.70418469     1.6014935      199.82256      107.96332      175.94566     -11.160601      48.164305      37.500826      730.61265      48.061483      129.66406    
   2354000   300.27921      0.89507312     0.70673059     1.6018037      199.99389      107.96513      176.11257     -114.39225      65.695832     -221.53163      878.3346       25.743402      121.43395    
   2355000   300.79306      0.89660481     0.7078563      1.6044611      199.98278      107.97178      175.84719     -115.46788     -147.14769      106.40436      623.43641     -36.629569      308.05975    
   2356000   300.68787      0.89629126     0.70610786     1.6023991      200.04846      107.94783      175.83351      120.38681      307.17875      107.68528      760.84514      61.199692      166.5103     
   2357000   300.3474       0.89527639     0.70626847     1.6015449      200.01664      107.9295       175.86272      12.388225      136.74299     -144.95998      823.62736      8.1887465      294.80417    
   2358000   299.99854      0.8942365      0.70475905     1.5989956      199.94966      107.99517      175.71396      144.89217     -100.71276     -29.066213      957.23684     -13.206356      178.91689    
   2359000   299.32879      0.8922401      0.70440007     1.5966402      200.04758      107.96137      175.91776     -86.141079     -277.1929      -299.41305      872.43467      109.7385       126.30161    
   2360000   299.2898       0.89212389     0.70266893     1.5947928      200.05054      107.96689      175.64222      55.348598     -36.107034      284.08941      892.82753      93.388953      205.94306    
   2361000   300.19952      0.89483559     0.70433039     1.599166       200.02937      107.97396      175.65777      116.57364      78.436344      52.497184      780.40806      3.094818       116.38532    
   2362000   299.88509      0.89389832     0.70550084     1.5993992      200.09662      107.97601      175.65938     -68.2994       -225.59124      162.49517      528.63123     -173.39105      131.70079    
   2363000   299.53615      0.8928582      0.70772143     1.6005796      200.242        107.98858      175.45622     -314.33634      25.805801      95.852399      945.62215     -115.59598      294.19976    
   2364000   299.29768      0.89214739     0.7050741      1.5972215      200.43464      107.9665       175.29573      29.840875     -19.15277       6.8975602      810.52416      61.210804     -42.520425    
   2365000   300.37786      0.89536719     0.70509323     1.6004604      200.38085      107.98309      175.45491     -150.10246     -149.14224      31.375085      706.92532     -58.033438      96.202315    
   2366000   300.30691      0.89515571     0.70586622     1.6010219      200.27343      107.9725       175.38382      40.366148      154.71381      39.701163      979.78125     -132.21706      213.29727    
   2367000   300.49707      0.89572253     0.70731221     1.6030347      200.50003      107.94889      175.43668     -314.07699      110.89076      136.1256       721.07276     -150.89619      48.758931    
   2368000   300.06234      0.89442669     0.70435046     1.5987771      200.49358      108.02759      175.30782     -272.13221     -1.3334512      123.6687       634.11512     -53.99167       261.67694    
   2369000   300.18507      0.89479251     0.7060932      1.6008857      200.37006      108.02283      175.44626      161.52961      255.28334      71.465494      956.78902      80.169561      66.497006    
   2370000   299.78021      0.89358572     0.70707173     1.6006575      200.38924      107.99464      175.35281     -319.39789      138.30421     -181.41091      729.62112     -28.400154      236.96199    
   2371000   300.31838      0.89518989     0.70711225     1.6023021      200.44574      108.03462      175.28932      63.980763      16.169469      144.02934      974.84923     -118.45754      187.43387    
   2372000   300.49017      0.89570196     0.70783639     1.6035383      200.37129      108.02381      175.3979      -60.334702      177.53499     -167.66881      866.90561     -76.488159      262.56203    
   2373000   300.08328      0.89448911     0.70482707     1.5993162      200.44025      108.01805      175.22211      353.95176     -50.618712     -178.29883      590.28052     -8.8708953      131.98052    
   2374000   300.26319      0.89502538     0.70653816     1.6015635      200.58498      107.96039      175.12231     -63.718618      65.364785     -13.142324      862.6764       28.377354      23.44104     
   2375000   299.50665      0.89277028     0.70525253     1.5980228      200.65824      108.01691      175.09309      23.054815      80.165536     -61.790372      887.59986      52.562609      109.36036    
   2376000   300.62723      0.89611051     0.7064176      1.6025281      200.56924      108.01123      175.16055      19.83882       60.359931      104.88611      870.52031     -75.503196      219.0418     
   2377000   299.70155      0.89335124     0.70483765     1.5981889      200.72378      108.02053      175.00289     -111.28378     -238.09911      66.636271      663.33883      66.013385      105.76071    
   2378000   299.92488      0.89401694     0.70657212     1.6005891      200.74143      108.02762      175.01229      28.607401     -226.7326      -118.69622      918.44566      161.27527      247.92827    
   2379000   299.9175       0.89399494     0.70536803     1.599363       200.76762      108.00454      174.88967     -67.498953     -478.35963      47.8934        784.9531      -17.169977      91.686573    
   2380000   300.56074      0.89591233     0.70598842     1.6019007      200.82492      107.98876      174.84258     -55.759319      36.631157     -14.314802      799.23356      73.727367      95.898023    
   2381000   299.75331      0.89350553     0.7048235      1.598329       200.66008      107.99835      174.99534     -16.817558      67.364084     -173.45791      673.99757     -56.102415      244.70902    
   2382000   299.70061      0.89334843     0.70550321     1.5988516      200.72485      108.09356      174.93174     -66.817057      169.55786     -45.445271      863.61291      21.189291      186.0077     
   2383000   299.62393      0.89311986     0.70572717     1.598847       200.65697      108.03779      175.13843      85.790132     -139.89988     -228.08898      692.65841     -43.429426      47.339366    
   2384000   300.59512      0.89601478     0.70463749     1.6006523      200.85039      108.01026      174.81069      185.26523      211.22638      55.525146      834.56278     -86.729913      127.75346    
   2385000   300.62333      0.89609887     0.70432472     1.6004236      200.89721      108.05428      174.86324     -156.97879     -36.27234       27.723141      885.76654     -88.53611       89.055069    
   2386000   299.93672      0.89405222     0.70393325     1.5979855      200.93212      108.0844       174.63703     -251.23166     -389.39966      4.1573465      896.4382       25.61788       243.65659    
   2387000   300.42107      0.895496       0.70432965     1.5998257      200.69039      108.03156      174.84977     -145.40835      5.0744851     -5.4725024      887.33878     -90.958135      234.17427    
   2388000   299.78722      0.8936066      0.70406574     1.5976723      200.75523      108.09715      174.84569      132.43595     -4.3707541     -123.56165      930.73698     -12.357261      234.60168    
   2389000   299.31733      0.89220596     0.70666102     1.598867       200.61112      108.0534       174.82727     -257.38346      88.416648     -139.14351      985.79923     -47.495564      31.937239    
   2390000   300.08434      0.89449227     0.70805963     1.6025519      200.74465      108.02926      174.84317      19.974741      199.83494     -78.182636      764.95925     -58.562678      123.05215    
   2391000   300.56493      0.8959248      0.70598511     1.6019099      200.82814      108.09999      174.61716      232.37735     -30.67011       219.30534      679.535       -55.212827      94.239289    
   2392000   300.21904      0.89489379     0.70463664     1.5995304      200.91729      108.05687      174.75463      177.37074     -186.73813      35.716091      931.69887      62.411795      196.28038    
   2393000   300.60911      0.89605649     0.70472912     1.6007856      200.9764       108.08032      174.61417     -39.642245     -70.644057     -125.55382      949.13164      49.652711      177.47245    
   2394000   300.38879      0.89539978     0.70525022     1.60065        200.87929      107.96093      174.77397      184.48538     -99.898704     -182.27995      1003.006      -27.142178      94.997933    
   2395000   299.15313      0.8917165      0.70455772     1.5962742      200.97418      108.06636      174.52021     -386.38316     -4.8643694     -257.27443      1024.1571     -101.09848      147.63618    
   2396000   300.26443      0.89502907     0.70320939     1.5982385      200.89348      108.04432      174.5834       140.90227      217.93727      98.250626      967.69981     -56.600867      188.68568    
   2397000   300.33766      0.89524736     0.70475745     1.6000048      201.06459      108.1003       174.50291     -88.319268      231.22468     -82.823447      918.66193      79.319334      122.01828    
   2398000   300.77057      0.89653779     0.70424802     1.6007858      201.14754      108.08635      174.42956     -212.56242     -214.20925      46.335147      898.27049     -86.9923        152.13351    
   2399000   299.61064      0.89308025     0.70503085     1.5981111      201.07741      108.03413      174.52513      324.46291      86.694453     -197.42926      782.91162      89.539261      41.535235    
   2400000   300.00681      0.89426117     0.70495356     1.5992147      201.04302      108.09554      174.43684      95.935959     -17.441332     -195.24517      947.65259      15.917672      263.18757    
   2401000   300.52021      0.89579152     0.70474915     1.6005407      201.15038      108.12536      174.39096     -53.38064       147.86756     -31.383029      1051.8502     -45.90025       113.27493    
   2402000   300.37958      0.89537232     0.70676249     1.6021348      201.24391      108.13991      174.51339      300.01724      0.45878641     39.566678      834.94918      32.520397      223.13294    
   2403000   300.19481      0.89482156     0.70500715     1.5998287      201.24499      108.0809       174.32851      91.160359      39.094722     -24.794272      546.76645      119.54367      328.2166     
   2404000   299.73678      0.89345626     0.70629562     1.5997519      201.41629      108.13726      174.16969     -401.97133     -190.22426     -27.765132      731.06696     -38.970271      199.00183    
   2405000   300.18233      0.89478435     0.70647463     1.601259       201.3258       108.19331      174.16567     -115.68379      85.596532      84.700501      957.76003      35.788881      85.091907    
   2406000   300.29417      0.89511771     0.70467104     1.5997887      201.30959      108.14295      174.2812      -132.67896      280.40653      114.08376      971.25837      59.073561      123.10343    
   2407000   299.80072      0.89364683     0.7069574      1.6006042      201.21368      108.16168      174.24388      15.428392      321.69189      5.0881508      811.69471      30.040926      70.792497    
   2408000   300.36579      0.89533121     0.7013295      1.5966607      201.36364      108.14148      174.10662      284.64868      105.28318     -88.512763      775.36542     -7.7899028      98.752861    
   2409000   300.19152      0.89481173     0.70404036     1.5988521      201.51693      108.14448      174.09797     -92.5939       -258.42805      14.34492       966.39401      31.032341      57.844093    
   2410000   300.28355      0.89508607     0.7056719      1.600758       201.4903       108.11262      174.07593     -57.955884     -269.51068     -9.3557995      692.0576      -63.345703      167.55691    
   2411000   300.53512      0.89583595     0.70478842     1.6006244      201.51991      108.17948      174.0521       143.56852      6.6934714      167.2614       951.71396     -5.6699436      164.11164    
   2412000   299.88603      0.89390114     0.70444813     1.5983493      201.59688      108.08656      173.96685      5.1526176      0.30056379    -180.94969      814.86567      62.02008       151.0651     
   2413000   300.12492      0.89461322     0.70387176     1.598485       201.67341      108.10844      173.90798      22.84755      -88.928878      70.117928      836.22377      127.00951      139.99632    
   2414000   300.21075      0.89486905     0.70311629     1.5979853      201.65752      108.1682       173.93399     -172.91394      183.31689     -52.787293      997.76666     -90.416579      45.665025    
   2415000   300.31188      0.8951705      0.70340269     1.5985732      201.66302      108.19577      173.82892     -47.859097      145.71025      124.06304      771.59826     -64.876774      149.82707    
   2416000   299.5335       0.89285031     0.70444617     1.5972965      201.55795      108.19193      173.86057      326.47096      38.753625      38.304684      842.08148     -8.9951165     -38.305252    
   2417000   300.0942       0.89452165     0.70304788     1.5975695      201.75659      108.18818      173.81964     -11.35319      -38.073032      1.2777999      937.7605      -45.629404      19.163782    
   2418000   299.62567      0.89312504     0.70238417     1.5955092      201.82502      108.14825      173.72455     -157.20133      166.87919      50.464071      912.94351     -48.546372     -27.840944    
   2419000   299.21545      0.89190226     0.70617354     1.5980758      201.82578      108.08129      173.63873     -247.78234     -122.06955     -33.928184      746.08443     -48.186519      129.89827    
   2420000   300.92973      0.8970122      0.70554765     1.6025598      201.70745      108.17504      173.84361      329.92996      77.257395     -228.18232      855.3035       33.294133      80.04386     
   2421000   300.29465      0.89511916     0.70470297     1.5998221      201.76607      108.2184       173.60823     -178.45851      253.88119     -162.39333      876.6914       104.20346      94.069524    
   2422000   300.25496      0.89500086     0.70320895     1.5982098      201.85282      108.17797      173.57333     -111.85941      184.2169      -161.53277      934.16302     -31.507722      128.03616    
   2423000   300.34093      0.89525709     0.70517835     1.6004354      202.01977      108.20343      173.51918     -355.87638     -302.00932      120.50927      566.3754       8.8433957      197.57717    
   2424000   299.70372      0.8933577      0.70460993     1.5979676      201.97643      108.25912      173.49185      103.12744      58.032069      200.88485      933.93528      80.94468       75.468698    
   2425000   300.8237       0.89669614     0.70424331     1.6009395      202.14129      108.12942      173.4114      -50.212772      279.02524      92.340288      846.30315      19.716818      9.3645815    
   2426000   299.9329       0.89404084     0.70132985     1.5953707      201.99111      108.16074      173.40676     -79.67289       282.98619     -81.194581      854.50291     -17.054014      149.48729    
   2427000   299.88057      0.89388487     0.70245671     1.5963416      202.05317      108.176        173.3352       206.73391      403.37331      15.100237      960.95366      70.188671      202.6554     
   2428000   300.19798      0.894831       0.70213571     1.5969667      202.13493      108.18003      173.27092      110.78193      108.87654      81.67347       1100.1445      38.337186     -177.41735    
   2429000   300.00741      0.89426293     0.70446821     1.5987311      202.33127      108.24655      173.10555     -157.89625      143.14221      223.69664      629.96558     -53.471781     -50.49414     
   2430000   300.26171      0.89502096     0.70406625     1.5990872      202.21111      108.1598       173.27306     -394.04692     -242.42395     -144.6786       1019.7257     -23.309787     -60.557085    
   2431000   300.15582      0.89470534     0.70244262     1.597148       202.26255      108.19324      173.07543      309.37209      167.73273      56.627049      864.77045      86.138407      11.308499    
   2432000   300.02875      0.89432655     0.70276993     1.5970965      202.22488      108.21955      173.05543      113.12345     -153.92618      265.75626      974.60725      92.867843     -35.170819    
   2433000   299.91253      0.89398014     0.70406299     1.5980431      202.09685      108.17534      173.26313     -257.48884     -109.69624     -32.277136      860.34903     -97.113301     -7.1109705    
   2434000   299.73902      0.89346293     0.7034717      1.5969346      202.26299      108.14318      173.15917      1.8236923     -115.62846     -2.0172719      874.44181      48.560731     -5.6538698    
   2435000   299.82905      0.8937313      0.70448173     1.598213       202.31581      108.15942      173.02291      302.67483      256.89041     -5.5201937      1019.1403     -112.27562     -10.544344    
   2436000   299.93965      0.89406096     0.70478547     1.5988464      202.49208      108.14364      172.90311     -274.84607      269.42174     -6.1505519      924.95039      66.431257      84.716889    
   2437000   299.67613      0.89327547     0.69934831     1.5926238      202.46342      108.17187      172.93414      196.43946      7.4366215      41.774934      820.53052      84.817485      65.330257    
   2438000   299.81682      0.89369483     0.70359823     1.5972931      202.59109      108.13844      172.97868      4.2609533      36.161564     -202.79963      939.89198     -137.65861     -38.742625    
   2439000   299.90398      0.89395464     0.7047163      1.5986709      202.38205      108.20131      172.98223     -49.823401      68.935842     -45.350483      977.1901       149.9291       9.5418346    
   2440000   299.54781      0.89289296     0.70422026     1.5971132      202.46622      108.16231      172.97542      10.141937      37.865918     -42.319259      859.22947      10.046645      153.66553    
   2441000   300.32068      0.89519673     0.70425848     1.5994552      202.56713      108.22002      172.82857      110.87479      138.81195     -108.07172      759.2384       174.8115       57.218645    
   2442000   300.05675      0.89441002     0.70400404     1.5984141      202.61033      108.18843      172.69391      23.780714      230.30728     -17.857144      976.96159      49.113208      48.895853    
   2443000   299.65058      0.89319931     0.70294132     1.5961406      202.64837      108.20057      172.79753      174.72209      144.44696      1.1102914      824.70418      91.005426      7.2695629    
   2444000   300.03787      0.89435373     0.70337218     1.5977259      202.81474      108.21279      172.59867     -34.495394      101.71151      0.55981937     999.0642       2.5189245     -12.553715    
   2445000   299.42852      0.89253739     0.70540635     1.5979437      202.8579       108.17987      172.59011     -214.92193      296.01193      91.064582      934.25231     -57.609659      153.69858    
   2446000   300.05078      0.89439222     0.70458934     1.5989816      202.82221      108.27587      172.62855      74.051994     -158.82032     -42.896646      829.81749      36.68378       31.281061    
   2447000   299.90207      0.89394895     0.70770898     1.6016579      202.8863       108.23833      172.71776      5.5643831     -159.30187     -38.660282      808.38738     -11.078363      217.84312    
   2448000   300.20937      0.89486495     0.70164442     1.5965094      202.90437      108.25912      172.51715     -225.64303     -255.25278      19.667395      1039.0094     -79.424209      173.95959    
   2449000   299.9655       0.89413802     0.70303615     1.5971742      202.92703      108.19365      172.39119      196.99288     -108.27949      6.0799416      767.7053      -43.204307      33.622157    
   2450000   300.26413      0.89502816     0.70264392     1.5976721      203.10632      108.20703      172.29468      125.57102     -59.382963     -44.441702      1132.8508     -46.154066      114.34471    
   2451000   299.85483      0.89380815     0.70531032     1.5991185      203.10817      108.29674      172.24811     -83.238618      198.4677      -71.637242      1014.6448      74.196613      135.40625    
   2452000   300.0154       0.89428677     0.70220142     1.5964882      203.18129      108.29912      172.04611      91.20842       28.823313      97.068817      863.23841      46.313371      67.288012    
   2453000   300.04003      0.89436017     0.70391622     1.5982764      203.4023       108.22334      172.08981     -69.02274      -124.93752      21.251115      780.77279      46.307825      69.200736    
   2454000   299.84832      0.89378874     0.70145726     1.595246       203.21555      108.24681      172.15118     -131.37174      42.68535      -129.11406      839.83074      20.580111      122.74418    
   2455000   299.92751      0.89402479     0.70156545     1.5955902      203.07468      108.23833      172.15537      37.416434     -59.060572     -59.276231      929.63712      66.092873      71.449144    
   2456000   300.09698      0.89452995     0.70170894     1.5962389      203.26093      108.25128      172.00093      45.900122     -20.822546      20.224092      677.75514      145.0677      -69.512657    
   2457000   299.67014      0.89325762     0.7033615      1.5966191      203.47541      108.26563      171.93766     -20.367853     -19.714903     -37.654912      1129.1183     -31.144266      93.177778    
   2458000   300.74279      0.89645496     0.7036103      1.6000653      203.44473      108.24507      171.95355     -299.34575      235.83832     -215.81616      865.74893      7.4953284      92.259235    
   2459000   300.08209      0.89448555     0.70394233     1.5984279      203.59215      108.32075      171.7964      -224.92041     -58.005679     -148.62666      895.04355     -2.9485665      116.44633    
   2460000   300.46526      0.89562771     0.70463452     1.6002622      203.56147      108.2646       171.78339      32.839087      76.409857      139.10153      852.76974      83.319209      53.378261    
   2461000   299.47756      0.89268358     0.70208487     1.5947684      203.6305       108.27789      171.78836     -101.18166     -88.319198      70.371429      824.00367      23.296261      180.60016    
   2462000   299.85672      0.89381376     0.70337081     1.5971846      203.55082      108.30812      171.69692      241.29524      233.19135      104.98625      722.91664      33.997846      9.3802517    
   2463000   299.9446       0.89407573     0.70429876     1.5983745      203.87982      108.27597      171.63275      131.5598      -16.175877     -11.380846      772.16017      208.19964     -30.014058    
   2464000   299.42513      0.89252729     0.7034606      1.5959879      203.72145      108.284        171.62959     -134.41783      103.79624     -79.277351      882.58847     -34.531241      61.94614     
   2465000   300.25373      0.89499718     0.70288353     1.5978807      203.75314      108.26046      171.64035     -274.12141      78.427384     -6.3601433      828.90329     -51.933616     -40.166778    
   2466000   300.52272      0.89579898     0.70362854     1.5994275      203.68329      108.28622      171.70405      157.09292      322.05215      95.994679      819.63574      114.90116      32.530675    
   2467000   300.21283      0.89487527     0.70568842     1.6005637      203.84199      108.24834      171.69307     -82.745726      42.591289     -305.43577      1158.9407      127.40952      35.059754    
   2468000   299.16354      0.89174754     0.70390976     1.5956573      203.86404      108.27489      171.4986      -138.87185     -60.065878     -48.445452      1062.1836     -210.02306      136.69039    
   2469000   299.57953      0.89298753     0.70055278     1.5935403      203.87552      108.28098      171.31441     -73.729603     -220.80397     -61.634452      903.38774      161.19621      156.37878    
   2470000   299.76085      0.89352799     0.70333292     1.5968609      203.96228      108.2989       171.44468      12.729464     -28.208118     -63.597651      797.36694      136.92644      45.219186    
   2471000   300.35551      0.89530056     0.7051203      1.6004209      204.08306      108.27285      171.42614      16.539354     -2.6550974      36.300629      682.58993      68.624561     -8.3719242    
   2472000   299.60278      0.89305684     0.70418437     1.5972412      204.2213       108.28683      171.21056     -78.298687      178.56687      18.097581      955.20498     -1.0529053     -54.905283    
   2473000   300.05877      0.89441603     0.7026373      1.5970533      204.40967      108.2552       171.07424     -223.55928     -101.60829     -40.937544      685.4306      -47.582915      158.92793    
   2474000   299.11035      0.891589       0.70439029     1.5959793      204.46312      108.2964       171.07954     -124.91393     -123.51476      49.018976      968.14619      50.29108      -31.329126    
   2475000   300.36574      0.89533107     0.70242521     1.5977563      204.2715       108.33468      171.109        521.45329      232.88345     -0.7080134      1022.3716      49.681084      79.345009    
   2476000   299.61455      0.89309192     0.70372897     1.5968209      204.26971      108.24923      171.14575      71.025991     -20.587976      157.75499      878.21288      30.550998     -1.7950553    
   2477000   300.57726      0.89596157     0.70288825     1.5988498      204.29826      108.28184      171.25336      59.769185     -166.05843     -350.70296      934.35651      144.21351     -33.306757    
   2478000   299.95053      0.89409339     0.70200746     1.5961009      204.35318      108.27862      171.16699     -329.17916     -20.029286     -251.08421      865.048       -63.824534      105.46042    
   2479000   300.06433      0.8944326      0.70236687     1.5967995      204.47148      108.26056      170.92392     -167.84505     -76.729359     -340.41001      838.86383     -5.1350665      47.897651    
   2480000   299.93028      0.89403305     0.70427336     1.5983064      204.39282      108.36964      171.00715     -160.57869      8.603701       140.07605      843.05815     -12.321079     -63.335566    
   2481000   300.07205      0.89445562     0.70424926     1.5987049      204.63806      108.35971      170.91088      16.909901     -120.80439      12.077501      833.86923      51.030056      48.25296     
   2482000   300.02204      0.89430657     0.70378137     1.5980879      204.6506       108.2833       170.80459      116.28864      41.18921      -10.655682      960.72025     -10.178921      130.37325    
   2483000   299.77905      0.89358226     0.70413003     1.5977123      204.53848      108.31271      170.69399      228.26156     -203.97972      70.513031      968.23896      30.838923      82.274675    
   2484000   299.93776      0.89405535     0.70311606     1.5971714      204.75289      108.28275      170.76867      117.63905      37.513866      6.4913044      910.72054      117.79527      62.690625    
   2485000   300.29531      0.8951211      0.7040057      1.5991268      204.59149      108.33783      170.90597      204.55674      114.36525     -66.442549      879.39731      212.65145      104.45081    
   2486000   299.30699      0.89217514     0.70425191     1.596427       204.55602      108.32073      170.97164     -168.5216      -60.420724     -125.4313       807.81648     -8.942778       189.77284    
   2487000   299.4713       0.8926649      0.70487138     1.5975363      204.4259       108.28444      170.91364     -180.38999     -35.908156     -244.86864      1056.9945     -180.18926      64.54246     
   2488000   299.68192      0.89329271     0.70319172     1.5964844      204.63775      108.31783      170.74497     -79.916935     -321.3942       56.545463      1039.9976      5.737537       80.414454    
   2489000   299.86357      0.89383418     0.70204937     1.5958836      204.87374      108.29039      170.58934      177.12113      146.89706      308.55741      869.04084     -107.86542      25.665208    
   2490000   299.98332      0.89419114     0.70335006     1.5975412      204.76556      108.27921      170.65192     -7.0687791     -91.785563     -205.10446      1053.1086     -41.804189      40.135797    
   2491000   300.05532      0.89440576     0.70392452     1.5983303      204.88349      108.29464      170.65291     -160.79993      116.73486      41.031026      960.42964     -112.59526      121.54529    
   2492000   299.59066      0.8930207      0.70397481     1.5969955      204.97963      108.31534      170.47798      482.42835      293.52717      130.27272      1024.7479     -74.664497      64.662606    
   2493000   300.64219      0.89615511     0.70294261     1.5990977      205.16001      108.29883      170.45232     -254.99446     -185.2623       146.59102      913.14123     -44.748846     -46.988137    
   2494000   300.34329      0.89526413     0.70248631     1.5977504      204.94395      108.29876      170.50668      152.88878      194.16278     -30.058019      980.47382     -13.671832      46.936306    
   2495000   299.9972       0.89423253     0.70328187     1.5975144      205.04053      108.37757      170.48393      329.54491      62.713691      139.51655      951.61151     -0.69090799     171.24691    
   2496000   299.51441      0.89279341     0.70182418     1.5946176      204.99232      108.36783      170.44898     -21.791858     -5.3675025     -38.56772       1031.8201     -45.01461       84.707931    
   2497000   300.48139      0.89567579     0.70130051     1.5969763      204.95381      108.31844      170.47454     -39.698365      22.71119      -94.897653      780.68179      6.5294691      79.19238     
   2498000   300.06512      0.89443498     0.70296139     1.5973964      205.094        108.30239      170.40078      28.864707      10.708592     -143.22209      852.77595      75.106936      131.50883    
   2499000   300.68164      0.89627268     0.70038353     1.5966562      205.2434       108.26994      170.257        49.992359     -109.32138      63.033099      887.36575      78.672292      96.475355    
   2500000   299.61987      0.89310777     0.70259069     1.5956985      205.2129       108.36999      170.22248     -293.20133     -201.60321     -43.18784       583.76908     -54.608912     -32.147624    
   2501000   300.15309      0.8946972      0.7015292      1.5962264      205.17962      108.31245      170.44567     -40.127461     -49.520396     -242.15331      745.05785      55.555268      89.364013    
   2502000   300.3583       0.89530889     0.70310406     1.598413       204.99837      108.3875       170.48377      83.222132      0.43450076    -248.55543      841.8291      -50.501724      27.045737    
   2503000   299.87249      0.89386079     0.70374404     1.5976048      204.90284      108.39531      170.48366      199.17894      420.4143       99.354575      890.83635      32.800303      193.21999    
   2504000   300.53174      0.89582587     0.70194656     1.5977724      205.08814      108.30968      170.29426      415.66606      245.46337      301.27123      975.35064     -17.598533     -32.395562    
   2505000   300.09696      0.89452986     0.70070365     1.5952335      205.15086      108.29931      170.22446      192.19918      176.93657      153.58578      851.10884      106.87846     -18.999182    
   2506000   300.2924       0.89511245     0.70354185     1.5986543      205.3302       108.34457      170.1605       73.990956      16.751162     -104.55667      773.16892     -62.440942     -43.579371    
   2507000   299.5841       0.89300115     0.70176671     1.5947679      205.20944      108.40929      170.14489     -75.210302      128.74424      54.128871      915.35181      53.143614      169.15425    
   2508000   300.75946      0.89650467     0.70335253     1.5998572      205.13817      108.34585      170.33543     -95.547051      12.01087       158.06607      1029.4176     -8.8766586      161.19441    
   2509000   300.5163       0.89577984     0.70397652     1.5997564      205.26226      108.37826      170.23812      32.738298     -200.79862      152.87893      867.09975      64.186095     -6.6179685    
   2510000   300.52075      0.89579311     0.69978079     1.5955739      205.19821      108.42493      170.11432     -31.26621       188.24395      96.95273       837.30345      86.327531      62.111371    
   2511000   300.06074      0.89442191     0.70260146     1.5970234      205.32362      108.43531      170.12486     -201.49821     -91.53618      -51.06299       937.1825      -50.59626       1.5389426    
   2512000   299.56382      0.89294069     0.70219523     1.5951359      205.24654      108.40804      170.09587     -249.51163      111.28691     -14.421167      929.78382     -11.047442     -59.989126    
   2513000   299.81207      0.89368067     0.70197478     1.5956555      205.39358      108.44816      169.86531      218.18701      89.244179     -39.993981      739.75732      105.61132     -1.8008359    
   2514000   299.65124      0.89320126     0.70161942     1.5948207      205.44147      108.40798      169.99279     -312.17326     -303.59669     -128.43311      849.09355     -185.43951      191.58837    
   2515000   300.42385      0.89550429     0.70027149     1.5957758      205.24471      108.39666      170.01329     -124.09052      266.17384     -63.544268      897.46135     -201.27937      16.901881    
   2516000   299.3478       0.89229678     0.70147086     1.5937676      205.19528      108.4463       170.00872     -42.548031     -311.42521     -70.869321      607.46126     -2.7243856      140.57959    
   2517000   300.21123      0.89487049     0.70048639     1.5953569      205.29927      108.39352      169.92668     -200.5698       248.25        -26.01825       1096.6846     -30.386472      61.47031     
   2518000   300.84751      0.89676713     0.70317446     1.5999416      205.4724       108.47593      169.80197      16.345028      283.97942      126.88073      891.53934      68.999702      74.013867    
   2519000   299.62145      0.89311247     0.70203027     1.5951427      205.57353      108.44176      169.64867     -338.77146     -317.17987      103.51398      663.82018     -96.3022        47.273602    
   2520000   300.44056      0.89555409     0.70235864     1.5979127      205.44485      108.34816      169.90848     -39.482312      71.22424       194.32757      875.58337      24.658237      371.79865    
   2521000   300.09546      0.89452541     0.70147285     1.5959983      205.35273      108.49185      169.79761      267.41045     -318.32937     -35.168348      909.33642      203.05305      97.272359    
   2522000   299.95771      0.89411479     0.70133049     1.5954453      205.37201      108.44445      169.71782     -366.02072     -88.578114      16.258767      775.30563     -1.7963141      40.445945    
   2523000   300.12835      0.89462343     0.70085522     1.5954786      205.43218      108.47028      169.77268     -18.229031      96.866301     -116.67375      825.57794     -3.6386923      137.26486    
   2524000   299.80682      0.89366504     0.70362941     1.5972944      205.4891       108.53518      169.56325     -4.749952       146.79624      247.32574      798.47205     -12.907287     -52.106568    
   2525000   300.20018      0.89483755     0.70157966     1.5964172      205.58758      108.47893      169.57799     -29.674049      391.88778      63.203026      863.63429     -7.2503999     -6.9360578    
   2526000   299.51296      0.8927891      0.70091336     1.5937025      205.82948      108.46615      169.2504      -26.421823      15.314298     -0.26340638     906.77614      81.631186      18.679693    
   2527000   299.38027      0.89239356     0.70201415     1.5944077      205.83687      108.43021      169.31189     -351.52305     -72.646073     -148.36122      731.23473     -45.03926       40.954567    
   2528000   299.73725      0.89345765     0.70358353     1.5970412      205.74233      108.52365      169.35782     -282.00397      68.260127      212.67884      1136.4798     -109.84017     -8.9324364    
   2529000   299.67735      0.8932791      0.7000476      1.5933267      205.97233      108.45041      169.27414     -45.809121     -53.091437     -13.802164      981.71172     -88.800028      156.16889    
   2530000   300.7559       0.89649405     0.70407243     1.6005665      206.02445      108.54886      169.18578     -284.42694     -62.105019     -3.0870071      658.64149     -51.70974       26.097329    
   2531000   300.30043      0.89513639     0.69946344     1.5945998      205.86053      108.49811      169.15911      12.846187     -310.45871      153.69423      867.19314      38.904645      150.52767    
   2532000   299.82443      0.89371752     0.70234725     1.5960648      205.91618      108.46625      169.28501      348.29461      322.22323      371.03357      857.93107      37.447206      43.137001    
   2533000   299.86774      0.89384663     0.70329319     1.5971398      205.91837      108.51779      169.23316     -32.44997       49.850755      37.768659      812.20875     -68.800293      19.850833    
   2534000   300.62796      0.89611268     0.7011047      1.5972174      206.10335      108.48589      169.02491      247.0751       283.95582      39.810274      820.74779      84.149234     -34.066557    
   2535000   300.38514      0.89538888     0.70323837     1.5986272      206.15952      108.52203      169.02548      93.625703      104.54319     -43.20227       747.72812      59.330544      160.27077    
   2536000   300.04328      0.89436986     0.70263848     1.5970083      206.24052      108.56084      169.06163      248.81083     -219.22744      76.901623      1081.9019      26.319235      86.632596    
   2537000   299.64893      0.89319438     0.70098369     1.5941781      206.20142      108.48611      169.0217      -126.5334      -48.530638     -39.632502      904.96914     -79.228355      163.16169    
   2538000   300.07618      0.89446795     0.69975562     1.5942236      206.24127      108.45381      168.97132     -110.86333     -80.346727     -141.46715      667.88821     -114.82897      97.961229    
   2539000   300.45622      0.89560075     0.70198401     1.5975848      206.22218      108.51141      169.03014      0.67151954    -124.65222     -13.677777      748.55233      28.025322      91.540201    
   2540000   299.98459      0.89419493     0.70058772     1.5947826      206.32051      108.51194      168.77176      24.216927      29.961548     -60.038382      795.81648      91.14264      -5.0650057    
   2541000   300.17742      0.89476973     0.69850694     1.5932767      206.32184      108.49881      168.85199     -170.23912     -50.696241     -119.83595      928.12545     -36.189902      107.17403    
   2542000   300.22804      0.8949206      0.70288065     1.5978013      206.4215       108.48969      168.76377      174.26619      78.996662     -30.160429      945.13453      45.75164       133.2968     
   2543000   300.13618      0.89464679     0.69954532     1.5941921      206.32222      108.5293       168.86331     -184.65369     -189.64397      101.88732      831.35191     -28.994888      169.56198    
   2544000   300.31291      0.89517359     0.69997131     1.5951449      206.24389      108.52452      168.86891     -39.656424      230.38081      10.526649      1017.9142      35.33972       196.2533     
   2545000   299.11253      0.89159548     0.69995519     1.5915507      206.25485      108.45456      168.89004      34.019795     -343.62469      124.13238      782.48576      30.311991      121.29016    
   2546000   299.79674      0.89363498     0.70095417     1.5945891      206.45945      108.52431      168.7333      -124.14521     -56.771466     -100.00046      989.08128     -78.878151      138.93629    
   2547000   299.89556      0.89392955     0.70196024     1.5958898      206.46153      108.49381      168.75871      0.91319689    -220.72446      154.23628      853.22331      17.120238      210.18982    
   2548000   300.35059      0.8952859      0.70184558     1.5971315      206.5185       108.52136      168.55693      182.92315      150.22528      277.19791      853.44324     -42.865997      75.109113    
   2549000   300.49409      0.89571363     0.70192173     1.5976354      206.5633       108.50201      168.68446     -465.43481      221.14636      160.99468      843.31694     -202.43502      58.161363    
   2550000   300.54509      0.89586567     0.70122471     1.5970904      206.61761      108.49456      168.71913      30.557013     -170.144       -134.35897      1019.7972     -81.198712      187.5207     
   2551000   299.77622      0.89357382     0.6993907      1.5929645      206.69541      108.54846      168.38162     -66.176832     -65.023947     -208.17618      983.91216      70.938333      197.56234    
   2552000   300.06458      0.89443337     0.70231448     1.5967478      206.77757      108.50734      168.4878       60.679443      109.87305     -146.20364      769.40341      9.0068043      167.85233    
   2553000   299.57754      0.89298158     0.70117496     1.5941565      206.93126      108.53365      168.22817     -206.40307     -191.16011     -72.553528      842.91371     -171.29395      100.85023    
   2554000   299.80693      0.89366535     0.69953462     1.5932         206.77177      108.57282      168.42746      214.38015     -154.22104      123.30818      744.3264      -29.153376      59.306012    
   2555000   300.60209      0.89603557     0.70018413     1.5962197      206.87287      108.52207      168.40204     -502.34301     -286.99803     -79.847476      975.9968      -8.5868287      334.33215    
   2556000   300.72219      0.89639357     0.69829973     1.5946933      206.77171      108.52918      168.35432     -13.463671     -38.729524      100.41686      842.84285      12.743728     -35.587579    
   2557000   299.47271      0.8926691      0.70187952     1.5945486      206.87235      108.54216      168.32797     -244.29281      31.252241      14.958928      812.46125     -15.600282     -34.709837    
   2558000   300.02271      0.89430855     0.6981805      1.592489       207.01542      108.49215      168.13708     -84.024051      145.19852      63.314535      960.14791     -53.237951      119.4467     
   2559000   300.71037      0.89635832     0.70031819     1.5966765      206.94879      108.55473      168.26017     -82.725205      321.67489     -53.732069      900.38915      95.301904      126.82766    
   2560000   300.63374      0.89612991     0.70006239     1.5961923      207.07711      108.57995      168.04936      161.97053      141.24796      84.826046      1011.3274      34.217315      11.882006    
   2561000   300.19873      0.89483323     0.70094542     1.5957786      206.94876      108.51552      168.28849     -8.5229816      2.2910055      43.071068      752.55245     -10.026155      56.102039    
   2562000   300.18318      0.8947869      0.70089875     1.5956856      207.0595       108.51173      168.18003     -152.71338      274.61586      3.7520503      721.65485     -12.715688      19.034023    
   2563000   299.62452      0.89312164     0.70146544     1.5945871      207.27203      108.5377       167.99519      235.21001      99.197771      95.330374      820.42017      19.446276      149.4198     
   2564000   299.80167      0.89364968     0.70061336     1.594263       207.29663      108.51821      167.95249      65.886441      138.27651     -65.897356      909.14303      111.11821      120.55049    
   2565000   299.96738      0.89414361     0.70001357     1.5941572      207.37582      108.49128      168.09647     -198.90582     -71.812858      68.690216      1063.4719      9.6594112      110.27824    
   2566000   300.07595      0.89446726     0.69779474     1.592262       207.22971      108.48899      167.92215     -45.712183     -15.143822     -169.4424       893.22395     -45.9356        49.353987    
   2567000   300.03238      0.89433739     0.70074463     1.595082       207.25381      108.59142      168.00436     -168.19577     -69.826435     -125.05302      749.71508     -0.85686587     95.586976    
   2568000   300.37285      0.89535226     0.70142261     1.5967749      207.03901      108.5617       168.13889     -186.58764      152.23041     -93.832736      890.68486     -57.393077      126.48634    
   2569000   300.11402      0.89458073     0.7024853      1.597066       206.86099      108.53842      168.20097      46.479349     -6.8567635      11.163105      935.88969      35.708793      52.722699    
   2570000   300.19995      0.89483686     0.6992349      1.5940718      206.94364      108.56995      168.16415      93.150894     -36.758285      171.73816      880.44392      22.248638      40.035195    
   2571000   300.4135       0.89547342     0.69894759     1.594421       206.91069      108.56605      168.1663      -13.150534     -42.29548       71.606384      772.53915     -70.843365      60.640622    
   2572000   300.2728       0.89505401     0.70108526     1.5961393      207.08906      108.57062      167.98439      81.777089      38.926163      4.7174991      1021.0036     -12.501487      44.205636    
   2573000   300.34243      0.89526157     0.70073038     1.595992       207.16896      108.52796      167.96333     -86.725706      36.916871     -86.633863      779.58538     -57.106609      17.241048    
   2574000   300.60228      0.89603613     0.70164259     1.5976787      206.91705      108.60186      168.16394     -126.79656     -304.73821     -152.56944      850.69227     -8.5241398      44.602138    
   2575000   299.9913       0.89421493     0.69824273     1.5924577      207.05064      108.53019      168.15688     -15.233568     -30.733354     -35.026967      900.54692      29.326662      169.00202    
   2576000   300.4599       0.89561173     0.69970502     1.5953168      207.07124      108.50917      168.14921      369.22855      33.263799      53.736477      859.4677       120.43503      101.6112     
   2577000   299.55774      0.89292256     0.70097274     1.5938953      206.96949      108.60557      168.07268     -122.69367     -15.911494      80.007652      861.87361     -76.942822      38.592957    
   2578000   299.89252      0.89392047     0.70092154     1.594842       207.00488      108.59616      168.07499      119.11461      111.71351      167.87652      1003.6748      44.882905      112.13414    
   2579000   299.80849      0.89367        0.70014619     1.5938162      207.18895      108.58166      167.91714     -222.06132     -12.398801     -7.9855447      868.76105     -68.747868      190.8209     
   2580000   299.80745      0.8936669      0.70204168     1.5957086      207.22598      108.64972      168.01212     -69.408942     -479.08749     -40.469089      823.2491      -61.009459      230.79145    
   2581000   299.75743      0.89351781     0.69828833     1.5918061      207.11793      108.59398      167.95319     -332.58003      76.444146     -171.20666      796.78499      42.323922     -23.962087    
   2582000   299.54982      0.89289895     0.69985462     1.5927536      207.17185      108.53829      168.01681     -130.5198       172.11494     -225.34221      873.96434     -37.334427      112.67515    
   2583000   300.07692      0.89447015     0.69937075     1.5938409      207.06391      108.59667      167.99189     -163.60067     -206.71669     -107.00298      696.08053     -100.34845      44.78221     
   2584000   299.97114      0.89415482     0.70051714     1.594672       207.23005      108.61133      167.83017      118.0175       239.03083      149.3214       614.86911      128.86223      69.852286    
   2585000   299.96459      0.8941353      0.6983268      1.5924621      207.29997      108.60143      167.87344     -80.449341     -203.04382      139.07686      829.30688      21.212346      77.243959    
   2586000   300.00165      0.89424577     0.70033622     1.594582       207.17294      108.54556      167.90237      383.81634      467.449       -27.836546      920.32404      132.7311       15.144846    
   2587000   300.65065      0.89618033     0.70012033     1.5963007      207.19282      108.6097       167.8621      -203.72531      197.10133     -24.270159      834.23598      2.5651405      110.9982     
   2588000   300.20784      0.89486039     0.70081055     1.5956709      207.08657      108.65207      167.78722     -1.2971284     -22.109592      149.5365       777.34768     -89.561197     -92.844382    
   2589000   299.5944       0.89303186     0.70052471     1.5935566      207.25947      108.61098      167.77725     -69.472084     -37.147034      111.70105      874.88585      2.2182798      131.79121    
   2590000   299.71251      0.89338391     0.70150726     1.5948912      207.28193      108.57547      167.87398     -293.76561      136.25699     -70.93066       854.79036     -89.491416     -1.3762065    
   2591000   300.29758      0.89512788     0.7002262      1.5953541      207.04945      108.63309      167.88547      128.82009      136.71094     -61.389026      991.67861     -10.427177      181.61312    
   2592000   299.29951      0.89215283     0.701454       1.5936068      207.06648      108.64643      167.86489      124.32118     -180.98373     -175.08123      814.28857     -4.5830181      163.15184    
   2593000   299.64319      0.89317728     0.70363189     1.5968092      207.34095      108.639        167.66291     -282.08234      24.446417     -9.3623283      551.79683     -160.05309      24.186302    
   2594000   299.55374      0.89291065     0.70162783     1.5945385      207.37487      108.61861      167.6791      -314.05893     -41.610733     -152.77245      999.25817     -196.17656      17.832638    
   2595000   300.00987      0.89427028     0.70125834     1.5955286      207.27101      108.60838      167.70786      1.3224768     -25.238011     -46.352493      868.81552      37.56234       290.44449    
   2596000   299.64         0.89316776     0.70050865     1.5936764      207.00985      108.7139       167.72885     -116.55988     -141.12065     -16.41457       862.00311     -187.75212      150.09081    
   2597000   299.57407      0.89297124     0.70012047     1.5930917      207.04763      108.66436      167.88264      161.57102     -110.24336     -118.52006      898.7386      -100.32851      194.35569    
   2598000   300.12582      0.89461591     0.69899926     1.5936152      206.93294      108.63519      168.06207      76.933727     -260.68151      186.22094      779.00749      53.130628      138.91536    
   2599000   299.77906      0.89358228     0.69949043     1.5930727      207.13565      108.62227      167.77217     -274.27343      70.244106      165.61408      802.38698     -118.13556      98.717822    
   2600000   300.40956      0.89546169     0.70042651     1.5958882      207.01567      108.66298      167.8326       525.58028      182.5616      -139.67564      784.36588      65.742502      88.925757    
   2601000   299.51295      0.89278906     0.69846694     1.591256       207.2097       108.67102      167.77179     -147.4113       147.39658     -61.794587      983.66347     -2.7166692      163.0321     
   2602000   300.21489      0.8948814      0.69890605     1.5937874      207.06222      108.6568       167.7757      -232.12615      167.26181      96.451704      760.25749     -145.09767      101.73073    
   2603000   299.86499      0.89383843     0.70053782     1.5943763      206.95368      108.71591      167.82833     -170.49984      25.128292     -66.102179      860.2047       46.261213      182.04613    
   2604000   300.62997      0.89611868     0.69899987     1.5951186      207.05034      108.68408      167.85906      59.836676     -44.587969      39.73487       808.29898      37.523718      201.55525    
   2605000   299.79752      0.89363732     0.69974375     1.5933811      207.11265      108.64532      167.68436      247.16936     -171.75158     -64.01865       857.20907      19.766364      133.23228    
   2606000   299.9323       0.89403905     0.69927386     1.5933129      207.24359      108.63171      167.67456      120.83928      187.63023     -143.40729      774.32148      2.4715058      10.168222    
   2607000   300.01153      0.89427522     0.69972491     1.5940001      207.30574      108.68664      167.50468      215.56583      355.60991     -104.36702      607.03868     -60.106025      171.48438    
   2608000   300.41152      0.89546751     0.70037112     1.5958386      207.37769      108.67762      167.52523      123.27363      68.232952      38.41771       589.68965      68.434071      16.331409    
   2609000   299.95316      0.89410124     0.70140548     1.5955067      207.25599      108.68842      167.64073      233.00192     -74.499957      87.869298      865.50955     -40.543962      185.76858    
   2610000   299.30171      0.8921594      0.69874149     1.5909009      207.28086      108.64023      167.58166      201.68578     -115.15162     -152.92366      849.95888     -43.167539      16.422578    
   2611000   301.23137      0.89791134     0.70027152     1.5981829      207.19512      108.66747      167.64063      124.98459     -45.628095      93.822306      540.17473     -122.76075     -69.559591    
   2612000   299.92999      0.89403217     0.69905867     1.5930908      207.23972      108.70461      167.62825     -371.21393     -101.75563     -64.509999      644.35684      106.07651     -60.51421     
   2613000   299.90484      0.89395722     0.70164942     1.5956066      207.0531       108.74717      167.59597      94.23313       149.48373      61.646191      874.34365     -59.007887      281.34036    
   2614000   300.36492      0.8953286      0.700343       1.5956716      207.24029      108.69929      167.72031     -312.326        176.85194      13.179659      711.06656     -8.6926984      180.66135    
   2615000   299.94288      0.89407059     0.70026092     1.5943315      207.26421      108.69563      167.57463     -31.984881      141.59145     -16.838362      922.9313      -8.3641972      110.32349    
   2616000   299.56838      0.89295428     0.70032534     1.5932796      207.31969      108.70405      167.52701      20.453565     -144.21121      153.78885      827.50948      132.30259      39.531323    
   2617000   299.35499      0.89231821     0.69925127     1.5915695      207.1689       108.69185      167.57679     -49.978476      23.164412     -173.88026      770.93081     -37.770765      134.06526    
   2618000   299.9921       0.89421731     0.69659849     1.5908158      207.19183      108.70893      167.44029     -103.79299     -182.45148     -157.1338       822.86679     -32.5135        157.2827     
   2619000   299.86211      0.89382982     0.69997502     1.5938048      207.12831      108.71782      167.69383     -82.51087      -10.584953      53.763253      601.19691      101.49302      21.227003    
   2620000   300.47285      0.89565034     0.69989004     1.5955404      207.12965      108.68855      167.55444     -452.93038     -171.35976     -10.380731      848.98889      179.04429      165.84043    
   2621000   300.52534      0.89580678     0.699385       1.5951918      207.21075      108.73449      167.5668      -326.80592      23.350415     -65.001407      875.59905     -216.1938       274.66168    
   2622000   300.51045      0.89576241     0.69702585     1.5927883      207.07173      108.74104      167.43027      91.498837      7.2359153      161.03074      617.31086     -62.555068     -15.629357    
   2623000   300.21697      0.89488761     0.69802035     1.592908       207.03799      108.74005      167.55937      72.332036     -74.728395      46.089772      697.20044      81.659215      121.21764    
   2624000   299.82909      0.89373142     0.69895736     1.5926888      207.06448      108.70488      167.54188     -131.33607     -138.34689     -78.38696       863.97657     -149.2957       19.580959    
   2625000   300.03482      0.89434464     0.69989233     1.594237       207.05195      108.6205       167.78221     -254.97267      332.41048     -261.61824      838.73174     -43.482072      126.61344    
   2626000   299.98486      0.89419573     0.69904672     1.5932424      207.02359      108.74089      167.52212     -100.8047      -218.74558      8.9277966      775.90107     -102.72075      167.99235    
   2627000   299.5952       0.89303424     0.69724751     1.5902817      206.9735       108.76899      167.53737      174.0112      -144.3468       132.24665      895.60147     -22.03188       67.097577    
   2628000   299.64608      0.89318589     0.69912704     1.5923129      207.06646      108.73028      167.41958     -131.30733      3.9337023     -47.073663      811.08839     -59.049617      205.13317    
   2629000   299.97329      0.89416126     0.69861259     1.5927738      207.38736      108.69921      167.24103     -125.46495      299.78943      65.737151      829.21983     -70.191822      130.54007    
   2630000   300.03587      0.89434778     0.69952828     1.5938761      207.27765      108.6712       167.34653      69.445541     -39.581741     -0.33498426     738.35632     -17.697008      94.202604    
   2631000   299.87522      0.8938689      0.70053839     1.5944073      207.28045      108.71476      167.2591       211.53236      132.06812     -56.348482      734.2373      -66.569131      115.71184    
   2632000   299.90357      0.89395341     0.69743049     1.5913839      207.22388      108.74188      167.25059      47.275216      320.25959      60.622893      818.77468      7.1756891      71.895749    
   2633000   300.26167      0.89502085     0.69688858     1.5919094      207.08958      108.72428      167.48869      257.09909     -319.37448      31.801984      606.40725      75.675868     -45.16035     
   2634000   300.25268      0.89499406     0.70033009     1.5953242      207.23046      108.77407      167.23017     -17.153514     -68.276434     -184.94717      613.38889      36.831051     -81.875656    
   2635000   300.08299      0.89448825     0.70000374     1.594492       207.32159      108.77485      167.15406      91.707975      111.62377     -32.405472      619.90945      23.651269      40.602552    
   2636000   300.39857      0.89542892     0.69913813     1.5945671      207.5192       108.71165      167.10097     -132.88575     -139.69959     -114.89507      894.40048     -44.419608     -6.8167246    
   2637000   299.65474      0.8932117      0.69993815     1.5931498      207.49804      108.80269      166.99694     -55.908221     -75.095754     -209.90454      638.44359     -134.09019      62.941429    
   2638000   300.02707      0.89432154     0.69738052     1.5917021      207.38718      108.78176      167.0676      -4.4069336     -94.883487      8.404033       803.88427      41.842333      100.28602    
   2639000   300.2408       0.89495863     0.69792732     1.5928859      207.29934      108.78789      167.11342     -23.345669     -112.80496      68.337016      668.11786      1.2759079      110.22101    
   2640000   299.76405      0.89353753     0.70067424     1.5942118      207.36658      108.83553      167.14781     -197.41635     -446.2991      -207.20545      739.95791      25.210357      30.649806    
   2641000   299.11673      0.89160802     0.69801224     1.5896203      207.61563      108.75956      167.00444     -2.6565339     -171.56363     -90.950841      709.81764     -18.062582      138.64761    
   2642000   300.19694      0.89482789     0.69755664     1.5923845      207.70356      108.66723      166.91758      124.70355     -187.85988     -95.110819      477.81049     -28.100386      117.70918    
   2643000   299.65694      0.89321826     0.69638406     1.5896023      207.51522      108.79208      166.80897     -197.78309      117.08378     -170.69481      797.98439      64.793352      7.3253386    
   2644000   300.00321      0.89425042     0.69554266     1.5897931      207.53594      108.82114      166.81466      115.76119     -116.93278      129.4154       765.20979      181.84711      105.99791    
   2645000   300.20256      0.89484465     0.6962002      1.5910448      207.5394       108.72886      166.89491      198.57421     -34.896078     -104.75166      625.34847     -72.745481      8.4977541    
   2646000   300.19907      0.89483423     0.69688556     1.5917198      207.67111      108.84767      166.74857      310.88976     -198.51551      97.346871      601.67341      9.75746        157.25636    
   2647000   299.30767      0.89217715     0.69862258     1.5907997      207.76909      108.78713      166.62607     -221.61274     -174.26328      65.614849      870.50916     -33.167359     -26.345257    
   2648000   299.60929      0.89307622     0.69597298     1.5890492      207.88031      108.80775      166.59383     -244.49007     -130.33412     -32.895462      622.12432     -56.443572     -80.814053    
   2649000   299.88774      0.89390623     0.69600804     1.5899143      207.71594      108.7857       166.59293      253.1988      -449.88645     -135.51607      751.74597      57.692168      40.518631    
   2650000   299.60712      0.89306977     0.69773599     1.5908058      207.8047       108.77088      166.55014      121.53843      155.87783      122.38707      804.79547      89.325431     -31.45074     
   2651000   300.10468      0.89455289     0.69652388     1.5910768      208.01938      108.75026      166.41156     -118.59286      216.12095      21.79747       628.53537      60.802308      151.40859    
   2652000   300.51177      0.89576635     0.69601545     1.5917818      208.14455      108.75705      166.37804     -96.302342     -154.64767      10.724422      828.47644      80.735545      100.06407    
   2653000   299.33159      0.89224846     0.69766428     1.5899127      208.12318      108.79945      166.32752     -108.25191     -48.411484     -50.977536      901.28026     -121.78857      45.127431    
   2654000   299.64173      0.89317292     0.69746094     1.5906339      207.90754      108.82278      166.45108     -91.610847     -50.441531      34.707792      715.41661      70.216014      88.154775    
   2655000   299.85882      0.89382003     0.69789228     1.5917123      208.00479      108.78         166.28684      14.166289      22.501387      51.288978      711.71534      110.70615      192.37866    
   2656000   300.04127      0.89436387     0.69452371     1.5888876      207.99921      108.76656      166.35591     -21.733732      248.92496      61.472027      761.73262      21.713632      62.99833     
   2657000   299.62746      0.89313038     0.69798183     1.5911122      207.97746      108.76309      166.36542      13.853177     -241.3416      -87.002343      903.07063      165.92806      221.60676    
   2658000   300.08847      0.89450457     0.69706315     1.5915677      208.07717      108.83519      166.11502      243.25013     -171.21989      105.46249      859.36339      92.936042      194.59086    
   2659000   300.04776      0.89438323     0.69677369     1.5911569      208.07552      108.82738      166.21209      28.195489      1.0479335      49.251503      670.0495      -0.99571574     140.8677     
   2660000   299.1606       0.89173878     0.69669295     1.5884317      208.09623      108.77911      166.22695      50.298354     -61.631028      87.861406      629.6655      -86.530332      114.26036    
   2661000   299.62917      0.89313548     0.6970173      1.5901528      208.13521      108.71763      166.29828      115.05137      314.75302      117.59131      516.42692     -163.56912      163.99819    
   2662000   299.54269      0.89287771     0.6955298      1.5884075      207.81438      108.79323      166.3439      -144.1004       71.18425       106.10245      724.16896     -155.92852     -78.730955    
   2663000   300.12002      0.89459862     0.69746301     1.5920616      207.85444      108.75648      166.39265      45.706466      31.963101     -67.392625      792.81015      76.213965      206.42719    
   2664000   299.74702      0.89348677     0.69757264     1.5910594      207.95414      108.83563      166.18081     -27.797138     -392.41205      61.373468      774.80102     -19.440491      18.189471    
   2665000   299.68576      0.89330418     0.69817591     1.5914801      208.12896      108.75731      166.29312     -84.779571     -55.0223       -83.117425      844.03924     -48.581554      125.52206    
   2666000   299.767        0.89354633     0.69571355     1.5892599      208.15475      108.81761      166.06178      352.60692     -167.27806      99.52643       715.75176      89.312415      105.83165    
   2667000   300.67167      0.89624297     0.69744104     1.593684       208.29277      108.75369      166.09589     -183.77641      84.243106     -145.44196      763.04223     -94.667108      84.18699     
   2668000   299.99044      0.89421235     0.69533518     1.5895475      208.36108      108.81064      166.08925      23.157635      37.300928      69.274273      811.98894      53.02355       138.39084    
   2669000   300.15085      0.8946905      0.6975034      1.5921939      208.48691      108.7491       165.9614       315.63822     -91.978207      74.915116      922.5053       68.695573      143.20688    
   2670000   299.80435      0.89365768     0.69512143     1.5887791      208.40325      108.76155      165.98788     -67.178159     -238.26064     -82.003461      686.72531      85.15973       154.13559    
   2671000   300.08138      0.89448343     0.69556677     1.5900502      208.39936      108.82686      165.98606      347.43904      14.016121      100.24457      820.11911      16.78577       8.4585381    
   2672000   300.18644      0.89479661     0.69771895     1.5925156      208.51842      108.78916      165.90185     -265.31765     -190.81648      41.686483      1070.4545     -51.574442      121.57809    
   2673000   300.01226      0.8942774      0.69844895     1.5927263      208.60026      108.83085      165.87847     -40.945201      56.31373       65.563614      672.62207     -81.206629      29.639099    
   2674000   299.76986      0.89355485     0.69757876     1.5911336      208.41328      108.80994      165.94415     -127.10498      82.601149     -63.915328      716.14478      55.440135      59.887316    
   2675000   300.35562      0.89530091     0.69691197     1.5922129      208.37933      108.80863      166.03404      216.56087      366.87876      53.45763       778.43126     -188.63896     -41.806391    
   2676000   300.4472       0.89557387     0.6950838      1.5906577      208.24311      108.77259      166.05234      212.68721      316.19664      44.068628      687.10767     -109.80456      137.58711    
   2677000   299.30707      0.89217536     0.69699079     1.5891661      208.54923      108.80479      165.88786     -358.57814      55.385324     -178.86414      657.57264     -41.253881      38.425526    
   2678000   299.95827      0.89411646     0.69815518     1.5922716      208.67754      108.88437      165.92436      21.136028      178.92647     -108.62569      745.00856      57.707303      18.34814     
   2679000   300.16495      0.89473254     0.69503129     1.5897638      208.70871      108.76984      165.73603     -82.506389      192.02765     -112.23362      708.20516      41.358791     -78.779275    
   2680000   300.14474      0.89467231     0.69859509     1.5932674      208.60514      108.81105      165.77995     -432.13335     -211.41107      222.70611      909.40843     -94.368477      128.18862    
   2681000   299.414        0.89249412     0.69722844     1.5897226      208.56898      108.7584       165.99946     -419.76731     -336.32769     -74.136372      746.84996     -148.84238      12.656549    
   2682000   300.86548      0.89682068     0.69539548     1.5922162      208.46465      108.77325      165.89064     -71.162005      49.282465     -106.12177      604.40373      13.501203     -106.68882    
   2683000   299.89         0.89391298     0.69867507     1.5925881      208.6839       108.80808      165.73878     -173.86736      295.82016     -36.120675      922.41094     -3.7887499      97.756252    
   2684000   300.14138      0.89466228     0.6981114      1.5927737      208.91229      108.77289      165.66921      134.83694      1.5965833      178.20716      946.43676      11.264862      85.940266    
   2685000   300.10924      0.89456648     0.69716195     1.5917284      208.94765      108.78118      165.74581     -98.996829      190.09452      49.137276      771.11939      10.590172      166.67634    
   2686000   300.51104      0.89576418     0.6967149      1.5924791      208.82149      108.84753      165.67474     -253.0265      -98.981605     -22.06093       881.9924      -157.41151      154.86169    
   2687000   299.40773      0.89247541     0.69943595     1.5919114      208.50235      108.82114      165.81219      64.386446     -0.75226934     66.9971        1071.9929     -130.17498     -25.28325     
   2688000   300.51949      0.89578936     0.69746002     1.5932494      208.4324       108.85253      165.93799     -70.11778       124.75712      76.448505      736.48773      53.10717       170.58325    
   2689000   300.43608      0.89554073     0.69716056     1.5927013      208.55989      108.84397      165.91887      85.669143     -194.24263      6.8423613      941.01888      28.941371      63.212159    
   2690000   299.41176      0.89248744     0.69559018     1.5880776      208.79933      108.81126      165.75229     -18.885748      203.1662       96.392626      971.94726     -6.3593693      86.858011    
   2691000   300.36304      0.89532301     0.69605618     1.5913792      208.8588       108.85033      165.63602     -64.629306      262.30642      284.64727      982.17597      28.22926       103.5477     
   2692000   300.64026      0.89614936     0.69594091     1.5920903      208.87405      108.78827      165.69668     -9.2422081     -51.082872     -137.06618      802.79531      47.408316      112.99482    
   2693000   299.99514      0.89422637     0.69953342     1.5937598      208.82765      108.78929      165.69392     -64.801732      85.09271      -124.54154      968.38836      97.20955       91.173303    
   2694000   299.75821      0.89352014     0.69666053     1.5901807      208.95799      108.77833      165.59725      354.14439     -339.96483     -13.649368      876.81785     -112.59328      85.613945    
   2695000   299.50351      0.89276093     0.69565659     1.5884175      208.6333       108.84375      165.84091      204.10082      206.70211     -173.21388      942.53288      133.22858      24.493452    
   2696000   299.99288      0.89421962     0.69769171     1.5919113      208.59745      108.82603      165.86991      91.773073     -24.62917       84.511719      921.99674      60.862155      131.19017    
   2697000   299.81393      0.89368621     0.69851411     1.5922003      208.79375      108.8244       165.82303      5.5811143      126.43811     -81.511652      786.61447      19.416755      47.318561    
   2698000   300.38371      0.89538463     0.69672567     1.5921103      208.98963      108.79438      165.62851      360.45753      406.77488      166.49875      769.15749      72.861824     -33.110568    
   2699000   299.9352       0.89404772     0.70001168     1.5940594      209.09494      108.76679      165.63238     -318.31302     -17.748218     -33.003654      851.68192     -72.562494      34.349739    
   2700000   300.17408      0.89475975     0.69778175     1.5925415      208.86022      108.8588       165.64412     -345.19187      79.254783     -187.08528      798.96146     -27.094104      146.43735    
   2701000   300.67108      0.89624121     0.69614603     1.5923872      208.93068      108.77211      165.61983      223.91579     -149.34252      179.23         981.031        140.40322      159.99372    
   2702000   300.15163      0.89469283     0.69710498     1.5917978      209.07245      108.80053      165.54681     -106.90924      226.81576      14.61367       761.66731      178.56123      105.10318    
   2703000   299.58663      0.8930087      0.70012465     1.5931333      209.02232      108.80044      165.61302     -70.181084      349.53839     -9.4109021      962.58338      199.07461      127.48753    
   2704000   300.10759      0.89456158     0.69517763     1.5897392      208.93922      108.80383      165.63012      385.17399      230.52641     -73.282384      892.70053      181.83469      139.6741     
   2705000   299.82426      0.89371703     0.69582218     1.5895392      208.83876      108.82659      165.63162      129.28642      48.037344     -111.65222      903.1902       22.711909      157.51292    
   2706000   300.27709      0.8950668      0.7006598      1.5957266      209.00421      108.85248      165.55915      204.40552     -274.92893     -5.7388779      660.10848     -140.34437      50.129953    
   2707000   300.52027      0.89579167     0.69773987     1.5935315      209.05506      108.84254      165.50021     -140.30594     -91.46075      -202.04612      960.32235     -121.95321      36.152748    
   2708000   300.6454       0.89616466     0.69489182     1.5910565      209.27933      108.78898      165.39113     -51.886489     -39.573588      59.500537      1068.8337     -48.932271      77.696363    
   2709000   300.68474      0.89628192     0.69644949     1.5927314      209.06333      108.7808       165.60196     -82.888274      171.20744     -7.4673661      737.90657     -29.040389      123.66704    
   2710000   299.95684      0.8941122      0.69740385     1.5915161      208.94323      108.86994      165.57442      213.34717     -58.832995      149.81765      1056.6875     -52.369186      53.621695    
   2711000   299.67715      0.89327852     0.69592501     1.5892035      208.93169      108.83862      165.60702     -47.237587      86.907078     -174.33007      1028.7613     -34.164912      79.571335    
   2712000   300.24361      0.89496701     0.69782146     1.5927885      209.07379      108.77713      165.49094      89.385076     -176.07888     -51.001773      989.38886      116.13727      132.52416    
   2713000   300.19624      0.89482581     0.69587683     1.5907026      209.15793      108.74141      165.44632     -157.70093      241.77991     -18.014741      872.59232      4.4364058      186.98435    
   2714000   300.2271       0.8949178      0.69833373     1.5932515      208.99022      108.81711      165.60615      256.22671     -69.295925      45.297036      1001.2163      100.42382      67.337359    
   2715000   300.12089      0.8946012      0.69893509     1.5935363      208.85288      108.84951      165.64306     -10.427607     -302.49886      88.265138      978.68307     -81.27359       260.14867    
   2716000   300.59099      0.89600248     0.69783821     1.5938407      209.20966      108.83281      165.48439     -82.158607     -122.13162     -11.454855      1007.6607      30.799048      62.222392    
   2717000   299.4559       0.892619       0.69772471     1.5903437      209.2756       108.83037      165.38081      125.34999      13.579356      31.22299       885.17753     -65.629656      109.34554    
   2718000   300.45728      0.89560393     0.69703565     1.5926396      209.27523      108.81094      165.3488      -160.74745      325.68565      19.429798      1036.3686      28.009364      163.44205    
   2719000   300.08302      0.89448833     0.69735571     1.591844       209.15306      108.76038      165.53318     -200.96148     -204.06632     -114.29127      1147.9495     -118.42654      149.42066    
   2720000   300.00132      0.89424479     0.69913491     1.5933797      209.01818      108.85872      165.53372     -534.75588     -192.84194     -222.31902      925.6299      -76.937166      156.40678    
   2721000   300.13415      0.89464073     0.69965364     1.5942944      208.86745      108.8078       165.62705     -363.94324     -49.346467      122.46647      988.693       -163.03302      76.903146    
   2722000   300.12521      0.8946141      0.69908127     1.5936954      208.8747       108.82731      165.74886     -212.74348      12.018818     -66.687367      999.25972     -21.183936      233.23039    
   2723000   300.13518      0.89464381     0.69930227     1.5939461      209.04798      108.83359      165.71858     -328.15497      337.70019      85.97522       744.13405     -19.540403     -44.962758    
   2724000   299.83764      0.89375691     0.69755103     1.5913079      209.18055      108.81622      165.50782     -90.113199     -295.20285      92.831384      659.66094      34.839868     -23.194721    
   2725000   299.80745      0.89366691     0.69993352     1.5936004      209.211        108.81663      165.6247       128.63216     -26.810634     -95.267644      827.45521      266.615        276.66845    
   2726000   300.49045      0.89570279     0.69647223     1.592175       209.11892      108.89252      165.3611       223.24852     -176.43494     -116.12403      755.47438      111.55391      228.03866    
   2727000   300.67707      0.89625906     0.69749137     1.5937504      209.0641       108.7884       165.47218      85.669182      193.49946     -27.680711      1011.7502     -201.37527      27.939853    
   2728000   299.7601       0.89352577     0.69741477     1.5909405      209.24212      108.77024      165.44686     -133.64894     -406.36323     -205.20418      1124.6142      48.02828       180.19267    
   2729000   300.13533      0.89464426     0.69806058     1.5927048      209.25624      108.79577      165.39587      37.964758      379.88236     -35.371504      860.4059      -20.628473      55.927502    
   2730000   300.07339      0.89445961     0.6980959      1.5925555      209.157        108.80118      165.5201      -149.45531     -161.58583     -54.983179      1066.9054     -68.154905      287.64016    
   2731000   300.37145      0.89534809     0.69627381     1.5916219      209.1939       108.78618      165.40432      91.827436      181.54355      113.69547      1039.7983     -41.550292      115.76738    
   2732000   299.32928      0.89224158     0.69991904     1.5921606      209.33533      108.81272      165.39227     -157.52183      29.766235     -10.932924      984.17262     -91.261629      151.5409     
   2733000   300.13625      0.89464699     0.69933534     1.5939823      209.39997      108.80357      165.24081      156.64153     -138.48154      123.66287      1089.5408      118.90323      131.93055    
   2734000   299.75608      0.89351379     0.69798872     1.5915025      209.16969      108.90608      165.36411     -242.87758     -211.74925     -65.496342      1102.4564      104.55888      47.853212    
   2735000   299.61789      0.89310185     0.69936435     1.5924662      209.22754      108.76757      165.52225     -270.31097     -127.12996     -132.52936      788.9378       53.939232     -63.474919    
   2736000   300.37178      0.89534905     0.69770743     1.5930565      209.21579      108.84479      165.47874     -296.89518     -358.98613     -155.68444      927.52021     -50.294006      112.75913    
   2737000   299.85271      0.89380183     0.69717938     1.5909812      209.23547      108.83133      165.37191      89.355459     -26.974908     -56.012423      1031.4264     -148.7746       197.64482    
   2738000   300.45836      0.89560715     0.6986524      1.5942595      209.28565      108.89203      165.4013      -16.065151     -47.678079     -9.0972105      942.65353     -27.262416      147.79474    
   2739000   299.58147      0.8929933      0.69802184     1.5910151      209.31537      108.87828      165.48056      207.26603      18.527281      81.801639      862.39385      62.031916      278.56409    
   2740000   300.22185      0.89490214     0.69654241     1.5914446      209.21263      108.85317      165.43864     -93.840977      5.4427968      132.8885       1120.734       55.782113     -48.013432    
   2741000   299.81646      0.89369377     0.69793145     1.5916252      209.36715      108.78918      165.37734      229.45335      440.84842      163.86562      1132.4408      92.942584      18.047175    
   2742000   300.30129      0.89513894     0.69713821     1.5922772      209.36237      108.8793       165.36226      475.90456      36.490487     -49.782257      988.4911       59.597495      180.38531    
   2743000   300.41926      0.89549059     0.69915797     1.5946486      209.47584      108.88278      165.3395      -296.35182      341.99461     -100.8899       942.02339     -164.47059      93.134016    
   2744000   299.93364      0.89404304     0.69889137     1.5929344      209.43158      108.8859       165.23512      51.334639      10.282897      39.330898      932.71909     -129.51942      112.4996     
   2745000   300.02648      0.89431979     0.69669107     1.5910109      209.26666      108.80664      165.35499      113.45591      232.3646       53.028628      1191.4282      23.018649      139.39847    
   2746000   300.02131      0.89430439     0.69904254     1.5933469      209.54347      108.83047      165.31277      152.00766     -214.36412      144.54593      939.25909      37.139249     -53.672694    
   2747000   300.06451      0.89443315     0.69704723     1.5914804      209.53228      108.77828      165.22763     -49.068372      504.38179     -186.33521      904.4414      -27.228647      140.70339    
   2748000   299.33217      0.89225018     0.69900399     1.5912542      209.59616      108.90117      165.08434      6.6635498      64.621132      75.618208      947.37796     -29.308311      198.7899     
   2749000   300.46102      0.89561508     0.69663892     1.592254       209.56529      108.82325      165.20299      47.779616     -24.962868     -184.2726       1087.317      -23.073196      28.340293    
   2750000   299.61203      0.89308439     0.70033821     1.5934226      209.49652      108.78985      165.28574     -15.141625     -143.40784     -7.5246606      984.46831     -34.452564     -86.780687    
   2751000   299.72897      0.89343296     0.69839299     1.591826       209.43122      108.80572      165.22115     -290.41042      13.91439      -41.356258      883.97516     -103.85548     -11.583419    
   2752000   300.47049      0.89564331     0.69818188     1.5938252      209.53269      108.82144      165.23965     -115.14351     -285.45724      10.455395      887.10161      26.196738      12.928465    
   2753000   299.98642      0.89420039     0.69775311     1.5919535      209.66413      108.79828      165.14788      202.67957      439.3664       143.71526      1018.0495      24.627282      134.61611    
   2754000   300.72566      0.89640391     0.69924181     1.5956457      209.75546      108.91463      165.00237     -64.187176      249.66436      107.99408      790.91832     -64.916848     -13.344982    
   2755000   300.59788      0.89602303     0.69800264     1.5940257      209.52494      108.87146      165.32262      32.746604     -318.16406     -238.75901      814.95669     -131.10532      39.026075    
   2756000   301.22628      0.89789614     0.69769521     1.5955914      209.69318      108.84598      165.15245      155.79564     -143.55984      30.409837      1176.8218     -12.008569      176.48861    
   2757000   299.7708       0.89355767     0.69801098     1.5915686      209.72348      108.85862      165.03553     -193.44588      110.06831      16.200416      1230.0184     -49.773883     -15.251706    
   2758000   300.15811      0.89471216     0.69993581     1.594648       209.86592      108.9323       164.94702     -41.963273     -300.84726      59.687136      985.57399     -107.49666      27.081382    
   2759000   300.25395      0.89499783     0.70030648     1.5953043      209.75684      108.8743       165.13814     -57.821132     -19.612239      113.59265      962.42352      222.5249       217.51668    
   2760000   299.50717      0.89277183     0.69927418     1.592046       209.87059      108.87566      165.02384     -73.891107     -122.66462     -29.241463      973.82874     -86.880124      246.26837    
   2761000   300.4571       0.89560339     0.69809291     1.5936963      209.87436      108.89229      164.93398     -35.524896     -20.467419      27.90896       1051.8246     -105.41722      118.68267    
   2762000   300.24534      0.89497216     0.69913235     1.5941045      209.93599      108.83991      164.96631     -73.73118       200.10505     -27.875576      792.31355      92.856083      56.473507    
   2763000   300.18869      0.89480331     0.6996192      1.5944225      209.98152      108.88445      164.9354      -199.61271      31.997715      0.41909885     733.12795     -104.41624      151.19542    
   2764000   300.3068       0.89515536     0.69834825     1.5935036      209.69605      108.86912      164.94962     -43.104102     -293.08102     -20.388613      914.36899      114.23209      88.954385    
   2765000   300.41588      0.89548051     0.69876038     1.5942409      209.56652      108.81402      165.16436      249.31997      324.53951      54.482425      1070.1606     -26.026451      177.24305    
   2766000   299.80876      0.89367081     0.69924394     1.5929148      209.5832       108.8592       165.25738      332.98346      0.3633735     -144.81935      1107.7145      53.251256      20.152175    
   2767000   300.20638      0.89485603     0.69799448     1.5928505      209.52935      108.88545      165.17341      175.37848      12.863451     -34.442239      919.70379      109.76732      57.052638    
   2768000   299.84666      0.89378378     0.69976433     1.5935481      209.61529      108.86272      165.07368     -0.42078075     329.33133      300.57422      1088.5421      219.01626      214.00403    
   2769000   299.68884      0.89331336     0.69476929     1.5880826      209.77462      108.83583      164.95595      203.67273      151.0398      -126.80382      898.93204      19.160805     -23.09349     
   2770000   299.656        0.89321546     0.6971077      1.5903232      210.06467      108.82988      164.96689      32.226291     -194.76563     -266.44162      923.81526      9.1162547      93.652561    
   2771000   299.68204      0.89329307     0.69836805     1.5916611      210.01269      108.8569       164.72048     -115.64082      194.01063      217.09516      951.96261     -111.22792      261.56372    
   2772000   300.07568      0.89446644     0.6995028      1.5939692      209.75435      108.9045       164.96754      42.628902      51.379418     -93.731876      892.5715      -36.242363      140.48509    
   2773000   299.784        0.89359702     0.69937565     1.5929727      209.59838      108.91647      165.06608     -97.519269      108.51293     -30.954399      956.20521      2.5455506      127.10834    
   2774000   300.38927      0.89540119     0.69846675     1.5938679      209.64125      108.85842      165.02874     -73.716767      80.861479      22.205205      1066.4892     -56.544642     -6.5542727    
   2775000   300.11059      0.8945705      0.70008342     1.5946539      209.40631      108.90459      165.27463     -98.356145      88.277793      28.416401      980.64389      98.063073      140.6756     
   2776000   299.7942       0.8936274      0.69778371     1.5914111      209.51316      108.80867      165.24222      340.72679      113.13188     -48.136996      776.35981     -158.06992      0.81199944   
   2777000   300.45761      0.89560489     0.69980373     1.5954086      209.64257      108.8577       165.07757     -18.616847     -92.563779      185.79797      835.64858      136.91472      102.3438     
   2778000   300.69923      0.89632514     0.69987194     1.5961971      209.65437      108.88385      164.99409     -64.967791     -156.41946      30.585643      1019.1255     -95.999367      24.578535    
   2779000   299.46488      0.89264577     0.69930743     1.5919532      209.67186      108.94335      165.07731      14.851815     -138.20387      60.651656      898.33282      56.062253      117.33151    
   2780000   300.46025      0.89561278     0.69724297     1.5928557      209.68238      108.83878      165.04216     -74.045445     -320.83712     -66.43519       934.80814     -75.709677      146.29209    
   2781000   300.38412      0.89538586     0.69823801     1.5936239      209.86639      108.86841      164.96805     -46.485281      67.74289       54.263918      1183.1802      6.9302248      11.331663    
   2782000   299.39489      0.89243716     0.69724547     1.5896826      209.7116       108.9041       164.98788      122.3711       241.24743     -118.77164      993.04401      8.9126907      112.20743    
   2783000   300.17633      0.89476646     0.69707794     1.5918444      209.51         108.87503      165.05394      60.46471       17.912545     -37.48227       909.10889     -28.48363       235.70071    
   2784000   300.14986      0.89468756     0.69839421     1.5930818      209.57274      108.83668      165.0655       40.138361     -2.4397939      115.4892       1106.6683     -33.54619       168.24371    
   2785000   299.23752      0.89196805     0.69898015     1.5909482      209.41043      108.85486      165.22155     -127.82205      120.26074      186.97962      1167.8028      22.618736      235.84585    
   2786000   299.85994      0.89382336     0.69611928     1.5899426      209.46283      108.92152      165.07589      60.306808      323.93802      201.35587      762.16216      53.949046      170.83287    
   2787000   300.34305      0.89526342     0.69867851     1.5939419      209.25261      108.85653      165.45123      266.71919     -248.81389     -48.138094      975.61775      77.194451     -7.4515718    
   2788000   299.8562       0.89381221     0.69749665     1.5913089      209.40028      108.89961      165.17127      96.506187     -178.92427     -43.876145      1102.5588      44.974623      225.33052    
   2789000   299.5625       0.89293676     0.70001721     1.592954       209.39975      108.87598      165.21604     -285.11812      6.6351863     -6.7597908      916.23951     -111.61956      100.57363    
   2790000   299.96751      0.894144       0.69890839     1.5930524      209.45403      108.84998      165.23675      60.446632     -40.502364      136.27247      1100.3012      14.693013      209.43792    
   2791000   299.23003      0.89194574     0.69822161     1.5901674      209.41354      108.93333      165.14213     -102.27579      302.86982     -229.24495      1034.2349     -46.335408     -45.531024    
   2792000   300.17759      0.89477021     0.698819       1.5935892      209.74249      108.88656      165.08178      128.73411     -92.88103      -32.68748       1201.9534     -51.692131      20.420688    
   2793000   300.3055       0.89515149     0.6988755      1.594027       209.61314      108.85593      165.16627      61.135546      205.51775     -182.20559      940.31953     -23.708401      151.60113    
   2794000   300.0618       0.89442506     0.70005054     1.5944756      209.58552      108.91611      165.19638      37.660898      71.968599     -112.4391       1073.7642      62.111113      23.351472    
   2795000   299.98102      0.89418429     0.69743        1.5916143      209.36795      108.89401      165.2442       14.209236     -215.59447      70.56765       1039.4123     -4.112596       258.69355    
   2796000   300.05647      0.89440917     0.69842769     1.5928369      209.46916      108.88318      165.17025     -122.8189      -254.09799      64.17261       1116.2037     -85.743629      76.922424    
   2797000   300.35544      0.89530036     0.69843112     1.5937315      209.3626       108.9317       165.08206      28.311962     -118.70892      108.70899      1030.8044      11.830499      138.35379    
   2798000   299.78928      0.89361274     0.6989737      1.5925864      209.48017      108.85597      165.20565     -138.75755     -67.788638     -46.885044      1190.3045     -15.575682      247.1847     
   2799000   299.66905      0.89325437     0.69972418     1.5929786      209.51967      108.93115      165.17232      57.900407      80.091426      97.958571      727.47987     -25.473004      33.712422    
   2800000   300.39047      0.89540479     0.69976124     1.595166       209.38273      108.85297      165.19798      134.67046      292.42679      101.80513      981.37173      55.348062      97.28398     
   2801000   300.56611      0.89592833     0.69582564     1.591754       209.18176      108.87297      165.31043     -138.56288     -127.06446     -113.42204      926.82187     -106.08111      88.796844    
   2802000   299.4396       0.89257041     0.6961083      1.5886787      209.17159      108.92982      165.0769       271.95335      11.552442      194.02364      1087.5861      62.354461      153.39521    
   2803000   299.73113      0.89343941     0.69827961     1.591719       209.41797      108.89104      165.07856     -62.998108      92.381646     -34.337236      928.50115     -4.2832925      53.955927    
   2804000   300.30639      0.89515415     0.69665427     1.5918084      209.41181      108.93903      165.01296      35.291193     -137.03368      167.61825      759.31194      56.66385       134.18158    
   2805000   300.03919      0.89435768     0.7007117      1.5950694      209.45632      108.98575      165.0228       68.149263      368.39174      142.79706      1019.6751      127.37129      129.94007    
   2806000   299.97091      0.89415413     0.6954853      1.5896394      209.70495      108.8886       164.86517      17.666677      181.97087     -92.553882      815.14321      305.90316      26.447568    
   2807000   299.47988      0.89269047     0.69854608     1.5912366      209.73398      108.90996      164.84177      191.3527       186.3249      -69.39907       850.32443      98.635462     -63.232039    
   2808000   300.12136      0.89460261     0.69738747     1.5919901      209.62672      108.9619       164.83053     -166.44734     -230.99973      56.365697      1053.2027     -38.494545      206.42562    
   2809000   300.07221      0.8944561      0.69860579     1.5930619      209.46151      108.9328       164.9115      -26.164862     -88.112888      48.748721      871.23379      31.591742      70.837921    
   2810000   299.50456      0.89276404     0.69972589     1.5924899      209.37046      108.91401      165.05358     -186.24583      208.02232     -192.5056       892.74903     -69.317125     -73.921933    
   2811000   300.03442      0.89434345     0.69856088     1.5929043      209.50913      108.99831      164.88776     -10.944209     -479.04947     -36.807111      972.51101     -208.38619      29.360161    
   2812000   300.24043      0.89495755     0.69811237     1.5930699      209.65173      108.89342      164.87648     -13.356117     -100.03411     -183.86644      821.84548     -82.09167       3.3813639    
   2813000   300.23835      0.89495134     0.69919698     1.5941483      209.68843      108.86303      164.86389     -10.100036      117.57712      100.0285       838.64869     -100.96443      115.50237    
   2814000   299.72676      0.89342637     0.69843952     1.5918659      209.85161      108.9079       164.56166     -98.538542      269.43792      157.30429      1150.8615     -3.042454       90.873915    
   2815000   300.00721      0.89426234     0.6983417      1.592604       209.92818      108.94278      164.65259     -287.38355     -748.82608     -148.3674       1074.4534     -23.487156     -50.464133    
   2816000   299.58213      0.89299526     0.69882657     1.5918218      209.73943      109.01553      164.73468      83.187664     -233.5263       22.18912       820.54113     -78.755191      52.484508    
   2817000   300.46629      0.89563077     0.69764593     1.5932767      209.64623      108.96075      164.83212      70.669418     -335.65912     -20.977649      720.68508      35.76778       85.475756    
   2818000   300.52529      0.89580666     0.69943442     1.5952411      209.49533      108.92881      164.9972      -46.292761      155.69875      101.40227      1041.488      -124.68806      57.231246    
   2819000   299.74562      0.8934826      0.69603544     1.589518       209.61678      108.97096      164.79683     -169.10516      2.9932837     -117.1057       895.34187      146.90866      46.515954    
   2820000   300.2253       0.89491243     0.69683238     1.5917448      209.6632       108.95474      164.72006      26.194002     -174.38459      54.764806      955.36665      51.339261      48.18518     
   2821000   300.33424      0.89523716     0.69822924     1.5934664      209.95456      109.00741      164.54988     -33.654052      55.242833      122.90989      1061.4176      34.13829       190.37421    
   2822000   299.60262      0.89305635     0.69619814     1.5892545      209.86245      108.95163      164.56867      4.8313716      174.37135      121.90742      668.41998      20.367712      14.33554     
   2823000   300.05813      0.89441412     0.69794562     1.5923597      209.78905      108.92527      164.67959     -23.436433     -96.837759      52.879528      1134.5135      42.067191      199.67046    
   2824000   299.64073      0.89316995     0.69625835     1.5894283      209.61573      108.96334      164.71634     -249.12526      80.65346       31.481802      1037.3026     -126.4811       46.93637     
   2825000   299.6675       0.89324973     0.69605095     1.5893007      209.80585      109.02579      164.51009      107.92627     -252.22432     -52.55455       803.51491     -50.976307      84.852846    
   2826000   300.10531      0.89455478     0.69670421     1.591259       209.96994      108.91723      164.45403      20.758065      47.631369      83.072737      964.85772     -50.912005      95.168346    
   2827000   300.20022      0.89483766     0.697731       1.5925687      209.95748      108.96509      164.48856      23.497694     -71.067807     -55.189149      759.25038     -28.846989     -50.129836    
   2828000   300.03361      0.89434104     0.69572017     1.5900612      209.99432      108.94521      164.50017      65.304487      79.535122     -0.64353229     1033.7577      35.205656      52.192196    
   2829000   300.16066      0.89471975     0.69664664     1.5913664      209.8733       108.93282      164.47051      244.5324       133.53807      182.70738      886.88137     -53.051802      7.2848436    
   2830000   299.85926      0.89382134     0.69765934     1.5914807      209.79192      108.95571      164.744        93.342299     -115.58934      114.58585      884.68503      66.637863      248.46282    
   2831000   299.70705      0.89336762     0.69811325     1.5914809      209.93756      108.98742      164.49237      59.120428      1.855285       3.7886951      951.07694      70.160298      3.7034397    
   2832000   299.97423      0.89416403     0.69727527     1.5914393      209.87709      108.97781      164.47213     -340.4254       202.43711     -9.9023572      607.83705     -163.47206      98.785085    
   2833000   300.15139      0.89469213     0.69812079     1.5928129      209.86484      108.95579      164.46587      246.1778       52.126005      85.444644      842.16069     -46.340694      3.8158898    
   2834000   299.7562       0.89351415     0.69577917     1.5892933      209.93472      108.96795      164.46102     -210.28432     -45.289634     -36.859598      953.70544     -14.536531      111.87534    
   2835000   299.68433      0.89329989     0.69565128     1.5889512      209.95551      108.94028      164.45267      120.24584     -4.9829734      100.62845      818.91437      65.35924       61.638135    
   2836000   300.41617      0.89548137     0.69490615     1.5903875      209.865        109.06216      164.33035      107.79911     -397.61804     -232.47965      976.24952      12.436048      156.42507    
   2837000   300.22555      0.89491319     0.6956646      1.5905778      210.07352      108.96204      164.37952      392.60612     -161.0358      -78.617311      1023.2272      135.36043      214.04249    
   2838000   300.33171      0.89522961     0.69685315     1.5920828      210.04145      108.98731      164.31476     -42.287656      165.36456      144.80854      913.93507      48.422646      156.54182    
   2839000   300.20298      0.89484591     0.69661281     1.5914587      209.74526      109.03267      164.51308     -206.26314     -215.30639     -160.43908      911.42467     -46.331588      99.809388    
   2840000   299.85985      0.89382309     0.6962112      1.5900343      209.80708      109.03968      164.44192      68.027739      89.182335     -63.152763      836.03444      74.681281      122.28896    
   2841000   300.16299      0.8947267      0.69665404     1.5913807      210.12854      108.95464      164.27771     -94.37384      -180.88965      18.395104      806.76103      48.374854      50.037245    
   2842000   300.05676      0.89441005     0.69810309     1.5925131      210.01986      109.03291      164.17465      176.63054     -82.210411      95.520873      897.68315     -34.893703     -38.944608    
   2843000   299.56647      0.89294859     0.69536246     1.5883111      209.99237      108.9664       164.39141     -8.0853328     -73.957938     -174.14277      873.72403      10.59174      -4.1966778    
   2844000   299.98387      0.89419279     0.69707245     1.5912652      209.7939       109.00114      164.32341     -100.73825      444.26308      110.13646      939.16919      6.796537       236.00849    
   2845000   300.30618      0.89515351     0.69653318     1.5916867      209.7944       109.00711      164.44984      365.53597     -255.97183      15.07396       970.65227      41.411779      187.59453    
   2846000   299.89013      0.89391334     0.69795454     1.5918679      209.87462      108.99722      164.38809      57.607533     -45.183024     -28.889826      900.65436      75.318136      15.807766    
   2847000   300.5885       0.89599507     0.69426599     1.5902611      210.08464      109.03478      164.15849     -25.132493      67.952601      129.64019      807.80188     -67.620784      14.883237    
   2848000   300.06868      0.89444559     0.69391489     1.5883605      210.20721      109.00392      164.12443      209.33972     -204.58831      75.641249      1004.7659      70.611434      90.412673    
   2849000   299.64779      0.89319098     0.69652814     1.5897191      210.3478       108.95172      164.0466       175.84484     -65.448504      311.71992      1011.918       88.428668      93.361938    
   2850000   300.07229      0.89445633     0.69476252     1.5892188      210.29368      109.00219      163.93936      172.61544     -122.21201      104.9656       1086.665      -34.396681      162.34593    
   2851000   300.12164      0.89460345     0.69539791     1.5900014      210.09588      108.96793      164.23791      4.8147351     -106.96561     -109.82088      1004.8505     -126.43898      19.693672    
   2852000   299.61329      0.89308815     0.69596579     1.5890539      210.09869      108.9899       164.14352      273.77475     -91.360006      149.6406       784.22657     -35.458253      86.741948    
   2853000   299.11251      0.89159543     0.69562835     1.5872238      210.01159      109.01388      164.19191     -122.78462     -207.51321     -120.95613      926.58661     -67.30025       20.709616    
   2854000   300.02842      0.89432556     0.6955958      1.5899214      210.05722      109.02544      164.27511     -48.668924     -38.037144      180.57833      1185.4342      24.296379      279.9646     
   2855000   300.43004      0.89552272     0.69637881     1.5919015      210.0189       109.05741      164.26221     -124.23465     -1.8595975     -14.007677      798.08186     -106.27586      87.410138    
   2856000   300.04805      0.8943841      0.69571411     1.5900982      210.12395      108.97613      164.14822     -103.82505     -337.6246       115.95878      856.70815     -57.050318      182.35498    
   2857000   299.98509      0.89419642     0.69733617     1.5915326      210.3926       108.98883      163.99986     -17.249783      100.58729      7.834431       861.53965     -19.816596      150.9763     
   2858000   300.00971      0.8942698      0.6968013      1.5910711      210.31172      108.98414      163.93914      127.21586      157.90017      106.99969      998.03136      144.62957      64.988519    
   2859000   300.01536      0.89428663     0.69643656     1.5907232      210.09219      108.99142      164.19118      30.000472      52.730589      8.2970027      1190.9549     -111.72082      81.670994    
   2860000   299.19561      0.89184313     0.6955963      1.5874394      210.0095       109.02687      164.20783      193.44963      131.6455       5.0888175      881.52566      46.225846      35.451192    
   2861000   299.89843      0.8939381      0.69648983     1.5904279      210.21242      109.04918      164.15187     -244.89755     -116.9318      -142.93584      927.96383      4.9648258      170.35279    
   2862000   300.58786      0.89599317     0.69622057     1.5922137      210.23517      109.01537      164.20029     -37.762706      308.62259     -116.30763      1053.6516      78.02171      -22.621439    
   2863000   300.17631      0.8947664      0.69506946     1.5898359      210.25812      109.01412      164.10704     -96.166489     -109.50308     -22.025526      1048.9534     -32.396149      216.47831    
   2864000   300.48394      0.8956834      0.69587863     1.591562       210.27901      109.03568      164.03543     -399.74531     -316.23607     -91.986173      878.34839      66.296566      103.15224    
   2865000   299.67934      0.89328504     0.69606179     1.5893468      210.14936      109.0261       163.99073     -236.03523      248.65017     -2.9038736      774.41821     -181.13855      82.916968    
   2866000   300.05116      0.89439337     0.69345714     1.5878505      210.30774      108.98061      163.86262     -27.655129      150.14287      8.9167625      1016.181      -56.611894      240.82443    
   2867000   300.81556      0.89667189     0.69655113     1.593223       210.20601      109.0592       164.01571      299.92791      132.19441      37.33516       1021.8467      113.44518      185.77369    
   2868000   300.32961      0.89522335     0.69422294     1.5894463      210.33174      109.02164      163.98202      208.52392      91.331206      30.293597      891.29076      1.1350169      159.95069    
   2869000   300.31263      0.89517275     0.6978732      1.5930459      210.08841      109.09943      164.06154     -10.972807     -198.92405     -125.63576      1130.5947      163.31511      203.08792    
   2870000   299.61279      0.89308666     0.69397672     1.5870634      210.39828      109.03572      164.04738     -108.5026       3.2130383      88.251883      757.0534       4.8499781     -187.23404    
   2871000   299.78518      0.89360054     0.69704066     1.5906412      210.41999      109.06179      163.86687      31.03244       69.542481      89.920582      1025.7641      40.33822       154.68432    
   2872000   299.94289      0.89407062     0.69502685     1.5890975      210.58883      108.99194      163.7661      -35.843085     -121.5202       167.92851      978.02794     -157.94234      214.22955    
   2873000   299.65697      0.89321836     0.6952099      1.5884283      210.43416      108.99283      163.73281      199.65943      232.05436      70.664821      1005.8169     -108.82361      118.22639    
   2874000   300.0479       0.89438365     0.69928976     1.5936734      210.36597      109.02744      163.90721     -6.3371624     -39.463361      144.21159      899.95288      25.171616      110.00828    
   2875000   299.78191      0.89359079     0.69502694     1.5886177      210.36055      109.01283      163.91454      142.02233      114.30788     -64.114198      774.60111     -169.85525      122.46265    
   2876000   300.29387      0.89511683     0.69595172     1.5910685      210.64507      108.97596      163.70564      110.84632     -14.343802     -32.335113      1024.3137      92.230677      138.42762    
   2877000   300.02263      0.89430832     0.69614069     1.590449       210.75642      109.05337      163.66411     -124.44554     -155.61718      32.773879      856.84875      150.27913     -0.55319566   
   2878000   301.16199      0.89770451     0.6954008      1.5931053      210.65328      109.01367      163.76274     -88.837752     -5.3892223     -130.75425      1028.9681      187.8285       65.278476    
   2879000   299.553        0.89290843     0.69470132     1.5876098      210.61577      109.02239      163.59562     -190.40554     -196.0737      -17.644247      839.50995     -167.13756      111.54422    
   2880000   300.08569      0.89449628     0.69557791     1.5900742      210.49012      109.0832       163.71776      223.06198      70.51587       267.48547      854.6978       14.192781      120.06621    
   2881000   299.98076      0.89418351     0.69682478     1.5910083      210.64615      109.04981      163.68017      213.90743     -234.21904     -46.29832       1029.8439      37.669392     -18.081922    
   2882000   299.45241      0.89260861     0.69592945     1.5885381      210.93923      108.99025      163.41511     -204.9693       44.648429     -1.4326464      928.74627      30.816415      193.11648    
   2883000   299.52506      0.89282516     0.69632432     1.5891495      211.06642      108.99277      163.36386      23.054162     -17.878742     -152.30524      874.2367      -84.293634      128.05547    
   2884000   299.87354      0.89386392     0.69503596     1.5888999      211.02723      109.06667      163.27404     -196.55564      89.435725      210.75057      989.42775     -11.883199      177.24926    
   2885000   299.91981      0.89400184     0.69546407     1.5894659      210.83143      109.04111      163.48631     -34.964281      77.286531     -43.555999      972.18996     -13.621117      157.07415    
   2886000   300.00728      0.89426255     0.6935306      1.5877931      210.79252      109.0197       163.42129     -150.79001     -208.38555     -134.93902      909.48888      60.209717      51.743284    
   2887000   300.11719      0.89459018     0.6965476      1.5911378      210.98896      109.05926      163.38116      124.86381     -75.80611       62.239415      769.86746      8.701224       61.431088    
   2888000   300.08646      0.89449857     0.69471515     1.5892137      210.97374      109.06686      163.18048      313.98356      47.525876      39.631644      1079.7944      32.091504      127.40936    
   2889000   300.41588      0.8954805      0.69405155     1.589532       211.21044      109.0068       163.12927      41.633541      315.67698      127.19057      976.51443     -211.53867      113.2059     
   2890000   299.95341      0.89410199     0.69696488     1.5910669      211.08685      109.0132       163.26948     -105.13153     -152.19694     -40.709557      804.52506     -34.57783       35.095527    
   2891000   299.91896      0.89399928     0.69485429     1.5888536      211.30968      109.08425      163.08498      147.66879      207.3129       165.76802      977.17126     -21.366754      102.31615    
   2892000   299.94936      0.89408992     0.69529222     1.5893821      211.48068      109.14365      162.97098      146.789        47.443523      53.193013      821.52935     -103.64307     -153.21035    
   2893000   300.06223      0.89442635     0.6929292      1.5873556      211.50136      109.08236      162.80573     -417.08973      287.7005      -102.3776       1132.2534     -181.09385      209.97432    
   2894000   300.21651      0.89488622     0.69472133     1.5896075      211.56097      109.05263      162.8993       156.69991      226.93133      69.802784      907.46277      109.39318     -12.135132    
   2895000   300.37765      0.89536656     0.69317864     1.5885452      211.34124      109.04512      163.01558     -19.077852      48.591641      176.51444      903.98715      1.6013187      177.38729    
   2896000   299.50222      0.89275706     0.69529802     1.5880551      211.44759      109.08655      162.8898       64.495854     -100.48431     -17.521403      1132.4944     -177.49304      148.63417    
   2897000   299.26188      0.89204065     0.69497379     1.5870144      211.60297      109.06748      162.78729      268.58443      107.68876      170.21353      997.8628      -9.3380211     -87.880641    
   2898000   299.89526      0.89392866     0.69676429     1.590693       211.77516      109.05167      162.71194     -18.338396     -39.327056     -71.008909      857.43445      169.86115      111.84661    
   2899000   299.69372      0.8933279      0.6929133      1.5862412      211.72841      109.07838      162.63325      53.380691      171.54961     -22.882688      975.51503      110.59718      23.177628    
   2900000   299.89762      0.89393569     0.69711629     1.591052       211.49377      109.12623      162.80095     -112.88679      24.364577      222.57956      845.62593      34.872218     -6.6628986    
   2901000   299.53086      0.89284245     0.69424081     1.5870833      211.52939      109.05806      162.84528     -225.44757     -175.01988     -100.41762      896.56397     -26.519429      41.740076    
   2902000   299.6413       0.89317163     0.69697018     1.5901418      211.64563      109.04083      162.64643      13.315459     -182.49886     -4.2797307      801.17567     -28.750582      109.758      
   2903000   299.91983      0.8940019      0.6944073      1.5884092      211.82056      109.04938      162.65433      301.2895      -31.535734      41.317848      1000.1362      124.59714      125.63139    
   2904000   299.5016       0.89275524     0.69476219     1.5875174      211.89667      109.03376      162.50979     -80.115021      36.233568      5.8188506      968.45251     -67.832362      289.84045    
   2905000   299.89075      0.89391522     0.69339279     1.587308       212.03791      109.04355      162.34417     -39.754003     -67.887038     -40.114779      1020.4915     -87.079148      115.95209    
   2906000   298.85501      0.89082786     0.69546781     1.5862957      212.32942      109.10454      162.1929       147.30082     -250.02566      90.859216      810.84795      87.517395      17.189249    
   2907000   300.37414      0.89535611     0.69549616     1.5908523      212.3826       109.08725      162.30465     -167.70519      132.14485     -191.89042      993.21073      81.589774      126.51396    
   2908000   300.32574      0.89521182     0.6949005      1.5901123      212.01652      109.12746      162.44903      79.762385     -302.93091     -175.35553      1013.5413     -1.8834169      68.595525    
   2909000   299.76419      0.89353797     0.69495489     1.5884929      211.89935      109.10511      162.54819     -5.4395787     -17.343867     -238.14064      1034.7773     -85.771692      87.022495    
   2910000   300.1468       0.89467844     0.69554825     1.5902267      211.79453      109.07741      162.59893     -207.93333     -17.733741      141.11635      932.51549     -76.321321     -19.606808    
   2911000   300.13663      0.89464814     0.6959707      1.5906188      211.84852      109.11968      162.52521     -62.544031     -1.145705      -49.529215      1147.374       59.224539      202.44183    
   2912000   300.48431      0.89568449     0.69422303     1.5899075      212.25481      109.09507      162.31013     -64.623717      111.34323      42.063639      602.54845      36.261414      163.91668    
   2913000   299.70502      0.89336157     0.69557537     1.5889369      212.12909      109.09245      162.34793      169.75928      125.21335     -13.126075      1042.924       131.98288      111.8284     
   2914000   300.12243      0.89460581     0.69344647     1.5880523      212.15556      109.10506      162.23429     -193.01535      18.719123     -51.56502       1007.6259     -185.23676      123.49617    
   2915000   300.30995      0.89516475     0.69437047     1.5895352      212.43089      109.08267      162.15244     -123.13517     -189.31562     -50.258424      917.31351      3.5642258      10.249328    
   2916000   300.13656      0.89464791     0.69509173     1.5897396      212.43826      109.01509      162.14312      81.833951      206.96899      5.5353865      819.90001      54.885383      187.9792     
   2917000   300.43293      0.89553133     0.69578117     1.5913125      212.3086       109.12326      162.14881     -192.51749     -65.167846     -62.008773      815.4253      -22.1942       -115.29557    
   2918000   300.1532       0.89469753     0.69492292     1.5896204      211.97827      109.09265      162.35999     -101.15848      182.40177      12.134216      603.02256     -70.846053     -48.503771    
   2919000   300.75392      0.89648815     0.69368384     1.590172       212.01726      109.01171      162.29767      110.33502      321.81757      216.27719      1090.6873      14.464735      213.59711    
   2920000   300.09866      0.89453494     0.69555794     1.5900929      212.10709      109.13219      162.23241      176.94965      145.34177     -160.89506      918.69213     -65.246842     -39.533448    
   2921000   299.77375      0.89356647     0.69612625     1.5896927      212.04254      109.09247      162.33802     -27.325613     -69.323988     -157.93952      952.01877     -58.310875      36.585461    
   2922000   300.23374      0.89493761     0.69595664     1.5908942      212.07326      109.07504      162.29879      366.74569      23.173728     -64.380556      908.5667       160.53361      89.518361    
   2923000   299.81746      0.89369673     0.69499598     1.5886927      212.39284      109.04236      162.11582      224.07591      312.34442      66.951924      981.33329      39.568806      154.6762     
   2924000   300.08786      0.89450275     0.69511088     1.5896136      212.31562      109.10713      162.01864      253.58953     -49.325316      242.08525      874.82996      164.70607      8.8197157    
   2925000   299.37861      0.89238862     0.69476287     1.5871515      212.43877      109.07252      161.95182      61.26429      -174.08267      53.743727      1127.2862      164.05421      180.5162     
   2926000   299.46773      0.89265426     0.69352129     1.5861755      212.16021      109.1176       162.21509     -175.15242      63.53093      -181.68842      1000.2169     -95.932149      119.92989    
   2927000   300.47859      0.89566743     0.69735808     1.5930255      212.07756      109.16012      162.1715      -337.02253     -213.76789      198.27888      969.66796     -120.35409      127.63614    
   2928000   299.78985      0.89361443     0.69366315     1.5872776      212.04677      109.09627      162.24587      179.92268      11.298299     -65.999944      975.38035      31.903445      28.132565    
   2929000   299.61592      0.89309599     0.69486462     1.5879606      212.25368      109.04711      162.22896      96.027791     -23.607011     -123.03141      958.20226      136.41578      132.7406     
   2930000   299.95638      0.89411085     0.69627348     1.5903843      212.24368      109.15268      162.16978      86.838323      4.3972269      125.19043      797.99321      76.156721      151.58881    
   2931000   300.61552      0.89607561     0.69390244     1.5899781      212.39808      109.16024      162.02848     -183.3321      -66.626576     -95.25141       967.55654     -150.57988      21.431145    
   2932000   299.35505      0.89231839     0.69500195     1.5873203      212.55814      109.1168       161.95209      59.90526       336.75727      35.950156      1032.912       93.126341      133.26469    
   2933000   300.41227      0.89546974     0.69461875     1.5900885      212.6164       109.1554       161.68198      69.15825      -294.13793      77.006951      818.57102      77.924887      103.73437    
   2934000   300.60907      0.89605636     0.69376534     1.5898217      212.54814      109.11654      161.96095      282.90266     -197.91164     -86.290418      1048.6405      119.86964      47.832816    
   2935000   299.62814      0.89313241     0.69610476     1.5892372      212.45881      109.0907       162.0144       14.194279     -243.94292      111.79576      730.67329      91.31488      -0.6379898    
   2936000   299.35987      0.89233275     0.69424331     1.5865761      212.31339      109.1677       161.96298     -39.445805     -144.91298      39.041271      873.45366      8.5456156      124.32617    
   2937000   300.53401      0.89583264     0.69317665     1.5890093      212.16331      109.08206      162.30254     -216.28922      232.63509     -28.343913      984.63107     -171.9717       178.08169    
   2938000   300.35257      0.89529181     0.6958442      1.591136       212.15142      109.1494       162.14611      97.047544     -222.42287      127.27424      1007.319      -35.015666      132.65049    
   2939000   300.33949      0.8952528      0.69557257     1.5908254      212.43934      109.09008      162.05233      5.0421435      89.900343     -51.812717      1039.7242      4.5427708      128.80045    
   2940000   300.20026      0.89483779     0.69458626     1.5894241      212.40063      109.10483      161.99522      97.751482     -254.76266     -122.96464      935.97376     -31.333739      94.6829      
   2941000   300.04794      0.89438376     0.69469007     1.5890738      212.54392      109.13482      161.93324      46.549937      79.611024      78.492815      1052.7372      132.90831      39.980552    
   2942000   299.72222      0.89341285     0.69354859     1.5869614      212.67782      109.119        161.74698     -23.65264      -176.87089     -161.448        1100.9012      124.30333      103.27867    
   2943000   300.51219      0.89576759     0.69342917     1.5891968      212.81124      109.11401      161.78585      93.022439     -99.160486     -69.329692      709.64941      150.72092      95.260844    
   2944000   299.71507      0.89339155     0.69373823     1.5871298      212.65981      109.14687      161.80796      34.576104     -11.500093     -13.727534      1062.5149     -36.86864       106.49544    
   2945000   300.37921      0.89537121     0.69470133     1.5900725      212.61044      109.11234      161.93724     -224.94771      114.34393     -119.70537      856.41481      68.224101      126.56414    
   2946000   299.74589      0.89348342     0.691735       1.5852184      212.40166      109.08835      161.9209      -163.53978     -72.866875      4.5348934      963.29336     -145.87775      195.38704    
   2947000   300.37274      0.89535192     0.69380104     1.589153       212.52982      109.09622      161.80313     -67.008734     -245.39287      44.219338      905.03677     -42.536599      187.17011    
   2948000   300.23159      0.89493119     0.69495049     1.5898817      212.83545      109.06777      161.70529     -155.96574     -247.288        34.551527      980.22146      100.893        281.82618    
   2949000   300.53965      0.89584946     0.69491679     1.5907663      212.94432      109.07524      161.53515     -156.58453      294.53902      99.297741      1054.2444      22.917199      163.42332    
   2950000   300.22289      0.89490524     0.69388912     1.5887944      213.08177      109.07963      161.45596      10.951358     -68.864337      77.297491      955.26247      9.0709575      81.711026    
   2951000   300.50647      0.89575053     0.69435327     1.5901038      212.927        109.0658       161.71207      2.1935962     -214.79757      19.94044       1119.5432      3.9931202      226.20032    
   2952000   299.56178      0.89293462     0.69510844     1.5880431      212.69333      109.11891      161.73915      156.96817      150.93843      51.933405      959.4356       55.280599     -97.591499    
   2953000   299.98399      0.89419313     0.69357085     1.587764       212.67893      109.08623      161.75403     -91.034579      163.71792      71.588924      1071.5927     -80.270533      94.45661     
   2954000   299.58002      0.89298899     0.69343644     1.5864254      212.61104      109.10751      161.8664       125.78474     -111.2899      -94.867315      1102.8782      50.615265      169.70685    
   2955000   299.38417      0.89240519     0.69400037     1.5864056      212.9522       109.08153      161.51973     -35.237098      175.84954      155.40286      981.49281      51.184651      102.25295    
   2956000   300.20969      0.89486592     0.69478324     1.5896492      213.00733      109.08525      161.6334      -32.997722      216.94403      154.50827      1201.1375     -10.171749      121.04875    
   2957000   299.73728      0.89345775     0.69476804     1.5882258      213.02267      109.1163       161.60122     -61.822342     -87.244235      106.79322      842.62103      70.827899      74.734914    
   2958000   300.23854      0.8949519      0.69368119     1.5886331      212.80066      109.08307      161.72        -59.834135     -6.713825      -139.49438      920.23998      28.621668      77.175981    
   2959000   299.6352       0.89315346     0.69303329     1.5861867      212.77254      109.12852      161.51222      142.74277      2.0143525      48.188973      982.48994      106.62237      157.13259    
   2960000   300.28048      0.8950769      0.69295189     1.5880288      212.92636      109.13752      161.50692     -65.329223     -101.69929      59.021331      970.53412      12.179789      137.4237     
   2961000   301.13737      0.89763113     0.69489997     1.5925311      213.15753      109.11507      161.4568      -107.70824      56.718587     -15.265838      1138.794       104.55712      116.54517    
   2962000   299.78799      0.89360888     0.69526312     1.588872       213.19162      109.10319      161.52512      63.463693      22.509892      246.16307      1263.1205     -127.48368      130.42446    
   2963000   299.99201      0.89421705     0.69753123     1.5917483      213.15563      109.07728      161.45108      166.57732      126.42255      127.61265      996.8028       52.941553      48.744532    
   2964000   300.25737      0.89500802     0.69540624     1.5904143      213.15594      109.05978      161.48891      177.96193      97.802616      59.877933      1057.6075      123.10428      93.56629     
   2965000   300.1244       0.89461168     0.69514994     1.5897616      213.02321      109.07423      161.50624     -141.00781      121.40648     -111.15121      1076.9763      54.273268      147.60984    
   2966000   299.91047      0.89397399     0.69314262     1.5871166      212.98862      109.14737      161.34161     -56.615149     -150.00672      218.65172      838.19205      48.033619      76.71226     
   2967000   300.08222      0.89448593     0.69472977     1.5892157      213.3531       109.10061      161.34742      89.719998     -127.16479      105.7219       1165.8203     -62.399901      76.179183    
   2968000   299.65391      0.89320925     0.69478802     1.5879973      213.2247       109.02866      161.39367     -138.04579     -102.71528     -3.1478679      1222.5865     -24.485911      160.17214    
   2969000   299.83616      0.89375248     0.69644918     1.5902017      213.28001      109.1436       161.34904      99.094422      74.289096     -5.1056623      889.47548      99.444351      161.34751    
   2970000   300.16333      0.8947277      0.69726435     1.5919921      213.23841      109.12919      161.48899     -201.46623      25.528883     -95.804816      1070.7207     -45.580008      155.20493    
   2971000   299.59884      0.89304507     0.69510793     1.588153       213.3318       109.14238      161.42651     -330.65807      54.59286       186.17263      1041.7606     -92.535816      176.2936     
   2972000   301.03594      0.89732879     0.69462519     1.591954       213.39881      109.17663      161.31248      116.77967      80.321846      38.960179      975.29312      43.548762      59.139849    
   2973000   300.03781      0.89435357     0.69170789     1.5860615      213.43293      109.0836       161.37406     -88.215372     -553.81542     -131.09961      883.66567     -190.16054      168.10889    
   2974000   299.75519      0.89351114     0.69295491     1.586466       213.23368      109.14465      161.3208       131.35573      297.90478      38.735152      932.68571     -29.649512      5.8470568    
   2975000   299.62872      0.89313415     0.69582424     1.5889584      213.42789      109.15044      161.30827      246.62957     -188.27977     -78.273531      1306.189       158.36484      333.01401    
   2976000   300.78929      0.89659356     0.69453419     1.5911278      213.56964      109.11689      161.25965      182.62176      236.84268     -37.37049       1026.3485      11.137445      60.363296    
   2977000   299.9836       0.89419196     0.69585112     1.5900431      213.53668      109.06297      161.28357     -379.0645      -57.172378     -301.88739      1051.8654     -96.096277      150.16129    
   2978000   300.78588      0.89658342     0.69643605     1.5930195      213.22558      109.20396      161.38027      88.967678      141.36618     -255.61564      1036.3791      52.735119      158.07857    
   2979000   299.6028       0.89305688     0.69577209     1.588829       213.21453      109.12285      161.59322     -232.64488     -318.7778       59.546789      916.56434     -65.557583      37.433539    
   2980000   299.82339      0.89371443     0.69795082     1.5916652      213.42594      109.12593      161.44842     -63.889521      78.681646     -88.671917      1311.6919      155.42403      97.246911    
   2981000   299.81483      0.89368891     0.69735482     1.5910437      213.40949      109.16253      161.31776      10.583184     -13.539839      95.308395      941.50578     -102.30522      232.47731    
   2982000   300.25216      0.8949925      0.69648983     1.5914823      213.62323      109.09909      161.23999      40.5826       -75.193738      49.977339      1111.1859     -45.532293      280.57923    
   2983000   300.18222      0.89478402     0.69721827     1.5920023      213.75897      109.14268      161.09619      185.29995     -37.319649      67.592532      979.20762      107.10637      166.31469    
   2984000   299.70636      0.89336556     0.6950634      1.588429       213.73911      109.05392      161.19937     -52.45552       343.4655       1.3702861      1057.6423     -9.7045318      134.85551    
   2985000   299.75521      0.89351119     0.69390281     1.587414       213.47455      109.09065      161.22142     -3.0325923     -346.37736      205.92712      1252.2354     -37.131027      135.22158    
   2986000   299.89162      0.89391781     0.69550323     1.589421       213.65331      109.09256      161.31445     -9.6701196     -0.17314494     76.571658      979.51096      76.274889      33.303569    
   2987000   299.97161      0.89415624     0.69619875     1.590355       213.65258      109.11723      161.18328     -96.155531      57.959251      11.495925      1034.4699      153.15069      207.95023    
   2988000   299.86877      0.89384968     0.69623946     1.5900891      213.72408      109.07825      161.18821      188.84323     -81.09815       96.068726      762.93884      120.16332      38.863121    
   2989000   300.06163      0.89442455     0.6946777      1.5891023      213.62149      109.17345      161.12004      71.191532     -3.0572537      36.260534      1087.5016      10.837424     -75.875572    
   2990000   300.47797      0.89566559     0.69470612     1.5903717      213.54767      109.11701      161.29486     -4.9757773      320.83874      19.235363      1116.8811      200.34967      161.26025    
   2991000   299.88198      0.89388907     0.69324624     1.5871353      213.42204      109.09849      161.35496      4.3146566      55.310532     -90.610141      991.58243     -148.63605      213.72214    
   2992000   300.17029      0.89474846     0.69482014     1.5895686      213.52453      109.13947      161.35951     -85.534507      140.83974     -184.0692       966.30845      1.0287699      121.40584    
   2993000   299.89524      0.8939286      0.69762674     1.5915553      213.73944      109.12749      161.09257      107.44457      37.385251      171.87692      956.74375      30.997222      205.63672    
   2994000   300.59713      0.89602078     0.69715803     1.5931788      213.77846      109.08224      161.11427      57.506863      274.72381      89.451479      1076.5983     -143.49444      139.06235    
   2995000   299.15275      0.89171536     0.694668       1.5863834      213.61892      109.08833      161.20577     -57.539619      91.81473      -84.336737      1071.8787      118.46212      83.533835    
   2996000   299.81019      0.89367506     0.69896067     1.5926357      213.56689      109.14416      161.15699      55.607206      344.72424      147.4908       1184.1706     -6.7768427      226.34902    
   2997000   300.11143      0.89457302     0.69598516     1.5905582      213.77387      109.11622      161.20467     -73.208988     -103.10542      22.03216       1071.1182     -65.008973      100.54784    
   2998000   300.07497      0.89446432     0.69826169     1.592726       213.89798      109.16601      161.13563      47.601449      251.58566     -27.41005       1147.3769      112.48302      266.97847    
   2999000   299.26917      0.89206241     0.6957812      1.5878436      214.06418      109.10718      161.05039      292.24929      156.21002      87.986215      877.24633     -155.84565      53.470059    
   3000000   299.88112      0.89388649     0.69714587     1.5910324      213.65921      109.12579      161.18978      207.58705      307.00657      135.60164      1124.9456      41.261181      124.25631    
Loop time of 24064.1 on 256 procs for 1500000 steps with 414720 atoms

Performance: 5.386 ns/day, 4.456 hours/ns, 62.333 timesteps/s, 25.851 Matom-step/s
99.4% CPU use with 256 MPI tasks x no OpenMP threads

MPI task timing breakdown:
Section |  min time  |  avg time  |  max time  |%varavg| %total
---------------------------------------------------------------
Pair    | 9900       | 10235      | 10582      | 113.6 | 42.53
Bond    | 443.55     | 460.41     | 478.22     |  22.5 |  1.91
Kspace  | 3394       | 3868.9     | 4287.6     | 266.9 | 16.08
Neigh   | 5047.8     | 5176       | 5281       |  87.6 | 21.51
Comm    | 2421.5     | 2763.3     | 3307.9     | 441.8 | 11.48
Output  | 1.1761     | 4.1433     | 4.4259     |  11.1 |  0.02
Modify  | 1152.8     | 1387.5     | 1534.7     | 257.5 |  5.77
Other   |            | 168.7      |            |       |  0.70

Nlocal:           1620 ave        1685 max        1556 min
Histogram: 5 10 18 33 58 62 45 19 3 3
Nghost:        8555.94 ave        8714 max        8364 min
Histogram: 4 2 8 29 49 67 56 30 5 6
Neighs:         376498 ave      396954 max      352291 min
Histogram: 6 6 11 23 38 70 61 28 10 3

Total # of neighbors = 96383593
Ave neighs/atom = 232.40643
Ave special neighs/atom = 9.4
Neighbor list builds = 207157
Dangerous builds = 22
unfix           4

unfix           7  # box_parameters.dat
unfix           6  # center.dat
unfix           2  # output.dat
unfix           1
#======================NPT equilibration
fix             5 all nph tri ${patm} ${patm} ${pdamp} fixedpoint ${xcm} ${ycm} ${zcm} flip no
fix             5 all nph tri 1 ${patm} ${pdamp} fixedpoint ${xcm} ${ycm} ${zcm} flip no
fix             5 all nph tri 1 1 ${pdamp} fixedpoint ${xcm} ${ycm} ${zcm} flip no
fix             5 all nph tri 1 1 1000 fixedpoint ${xcm} ${ycm} ${zcm} flip no
fix             5 all nph tri 1 1 1000 fixedpoint 25.8340077473748 ${ycm} ${zcm} flip no
fix             5 all nph tri 1 1 1000 fixedpoint 25.8340077473748 49.7331052487967 ${zcm} flip no
fix             5 all nph tri 1 1 1000 fixedpoint 25.8340077473748 49.7331052487967 86.2722299428351 flip no
run             ${trelax}
run             50000
PPPM initialization ...
  using 12-bit tables for long-range coulomb (../kspace.cpp:342)
  G vector (1/distance) = 0.29202899
  grid = 32 32 60
  stencil order = 6
  estimated absolute RMS force accuracy = 10.942484
  estimated relative force accuracy = 0.032952964
  using double precision KISS FFT
  3d grid and FFT values/proc = 2310 256
Generated 3 of 3 mixed pair_coeff terms from arithmetic mixing rule
Per MPI rank memory allocation (min/avg/max) = 18.45 | 18.46 | 18.46 Mbytes
   Step          Temp          KinEng         PotEng         TotEng           Lx             Ly             Lz            Pxx            Pyy            Pzz            Pxy            Pxz            Pyz      
   3000000   299.88112      0.89388649     0.69714589     1.5910324      213.65921      109.12579      161.18978      207.59269      307.00847      135.60112      1125.1686      41.264404      124.31037    
   3001000   300.27092      0.89504843     0.69448755     1.589536       213.43856      109.11051      161.18289     -285.87647     -21.844754      204.03949      481.51933     -105.6157      -64.347282    
   3002000   300.32596      0.89521248     0.69356838     1.5887809      213.08299      109.10846      161.24653     -391.96099     -165.00818      184.28288      99.000075     -10.048853     -238.35907    
   3003000   299.89009      0.89391323     0.69189977     1.585813       212.86472      109.1369       161.31476      22.11538      -10.634976     -77.119647      135.93701     -50.777701     -127.52233    
   3004000   300.00977      0.89426999     0.6912154      1.5854854      212.62064      109.12105      161.33969     -27.919826      125.90531     -79.605329      57.992447      181.42494     -85.187772    
   3005000   299.93643      0.89405137     0.68980791     1.5838593      212.49366      109.10846      161.38206     -35.971139      290.27338      77.23858       3.7515072      68.682734     -45.637741    
   3006000   300.03307      0.89433943     0.69060056     1.58494        212.51169      109.1446       161.42919     -27.886051     -151.50152     -81.686524      16.178154      11.598005     -178.13315    
   3007000   301.11169      0.89755458     0.6894713      1.5870259      212.38869      109.1701       161.45785     -169.07906      95.443571     -36.223211      151.3043      -33.919064     -45.418345    
   3008000   300.13764      0.89465114     0.69284622     1.5874974      212.46652      109.14201      161.44791      33.571932      237.46068     -123.49908      38.856947     -18.628707      43.044667    
   3009000   299.93637      0.89405118     0.69029542     1.5843466      212.49154      109.14856      161.41281     -29.048737     -108.56574     -174.4614       113.63432      164.45508      9.7280096    
   3010000   299.47252      0.89266855     0.69016541     1.582834       212.44991      109.15299      161.27929     -294.83507     -186.31807     -13.184996     -135.56162     -46.805122      12.087145    
   3011000   300.20589      0.89485458     0.69124245     1.586097       212.70334      109.12865      161.24937     -52.596434     -111.76511     -206.51896      94.572383     -4.3761921     -63.949229    
   3012000   299.79433      0.8936278      0.69038195     1.5840098      212.81067      109.17299      161.14737      12.765582     -102.52894      27.17151       63.13605       22.805897     -12.516734    
   3013000   299.33135      0.89224775     0.69029249     1.5825402      212.98072      109.14672      161.03642     -388.22088     -285.22672     -79.843909     -171.49427     -195.03899     -150.22203    
   3014000   300.25794      0.89500973     0.6911704      1.5861801      213.11181      109.13728      160.8533       120.26985      53.83721       121.02861     -95.626982     -74.825056     -48.191092    
   3015000   300.45803      0.89560615     0.69031127     1.5859174      213.03167      109.11609      160.8547       243.14469      211.80185     -9.7990101      37.271239     -34.499995      85.406502    
   3016000   298.7364       0.89047433     0.69089284     1.5813672      213.19533      109.14805      160.84497     -71.889974      33.300052      45.242981     -66.037969      68.417686     -135.65893    
   3017000   300.38631      0.89539237     0.68987708     1.5852695      213.32173      109.12619      160.70792     -180.55936      124.25033      211.8494      -59.126193     -87.464806      7.0004829    
   3018000   299.67817      0.89328155     0.69132473     1.5846063      213.44946      109.17184      160.64767     -305.22525     -2.0692732     -279.06592     -145.41076     -336.87657     -79.034939    
   3019000   299.77157      0.89355996     0.69014296     1.5837029      213.65595      109.12901      160.52735     -152.04159     -245.12708     -14.288364     -28.032065      65.408964      82.080577    
   3020000   300.02074      0.89430267     0.68928256     1.5835852      213.77399      109.14487      160.40504      104.97325      137.94239      168.47538     -79.166317     -65.628902     -2.7399188    
   3021000   300.19256      0.89481485     0.68873799     1.5835528      213.80296      109.12965      160.39368      55.13731      -85.786811      186.93618     -129.05827      166.92565     -82.302404    
   3022000   300.31003      0.89516501     0.6917907      1.5869557      213.99757      109.19282      160.29578      225.35015      79.454388      257.32548     -105.3549       25.684073     -2.3529261    
   3023000   300.20277      0.89484528     0.69264978     1.5874951      213.84966      109.19807      160.46813      65.809626     -201.7014      -49.309938      159.93604      104.71847      2.0393078    
   3024000   300.77342      0.89654627     0.69144435     1.5879906      214.04924      109.14137      160.33794     -32.587262      40.595296     -53.205675      37.90731       28.250542     -72.562625    
   3025000   299.9842       0.89419377     0.69019399     1.5843878      214.02868      109.2044       160.15862      181.46203      92.01813       89.76843      -211.00315     -36.333804      93.236118    
   3026000   299.72876      0.89343236     0.69263546     1.5860678      213.99463      109.14436      160.24594     -89.70901       145.69818      4.0259234      240.53996     -33.535347      89.890535    
   3027000   300.52415      0.89580324     0.69259716     1.5884004      214.05096      109.14284      160.314        381.78394     -358.59723      137.96732     -22.539787      6.6807919     -3.1427294    
   3028000   300.24735      0.89497815     0.69132535     1.5863035      214.05884      109.15162      160.24496     -116.22713      99.48943       167.10096      32.634889     -34.332855     -32.091186    
   3029000   299.52131      0.89281399     0.69021685     1.5830308      213.75368      109.13285      160.50261      65.27088      -275.71039      186.9238      -88.120646      16.330461      47.621146    
   3030000   299.69282      0.89332521     0.68878627     1.5821115      213.59911      109.21078      160.43801      282.3516       196.65287      212.72534      40.436635     -1.5515581     -18.563088    
   3031000   299.83406      0.89374621     0.69285985     1.5866061      213.84212      109.11929      160.50064     -115.70104      165.64626      57.457533      248.82136     -203.46747      214.15537    
   3032000   300.30287      0.89514365     0.69073802     1.5858817      213.84151      109.1377       160.37245     -8.9890585      348.92654      58.550816      117.88582     -74.324333      31.787619    
   3033000   299.51071      0.89278237     0.69171823     1.5845006      213.91464      109.16165      160.16456     -115.34937      131.5122      -4.5373862      45.481705     -22.272382      127.55631    
   3034000   300.01046      0.89427203     0.69177054     1.5860426      214.16402      109.09783      160.22023     -92.907711     -11.393118     -150.46515      120.99734     -47.923895      13.234434    
   3035000   299.79763      0.89363765     0.69121168     1.5848493      214.16677      109.1188       160.17955     -93.941749     -121.03403      248.6218       12.224514      83.707986      102.74421    
   3036000   300.3303       0.89522542     0.69061585     1.5858413      213.98689      109.13645      160.28285      9.9471772      196.85639      171.5216      -38.908939     -75.778641      72.861757    
   3037000   299.71511      0.89339166     0.69355886     1.5869505      214.08228      109.19363      160.23655      205.08977      130.15023      224.62125     -123.08342     -73.908329      35.320636    
   3038000   300.56993      0.8959397      0.6920255      1.5879652      214.14189      109.19551      160.24989      101.71158     -276.50689     -118.74325     -82.704693      91.810349      82.826381    
   3039000   299.90339      0.89395289     0.68998597     1.5839389      214.28558      109.12078      160.12586     -249.32735     -78.004928     -125.84586      212.24638     -102.64559     -10.104014    
   3040000   299.64391      0.89317942     0.6910944      1.5842738      214.39031      109.15538      160.12296      237.9206       208.85527      0.73504152    -157.46012      15.952722      60.856544    
   3041000   300.05179      0.89439523     0.69187279     1.586268       214.48764      109.20328      159.94413      143.53452     -239.35371      98.009863      239.09616      3.3217446      13.8843      
   3042000   300.23811      0.8949506      0.68964698     1.5845976      214.69742      109.09524      159.98479     -0.55141528    -191.00805     -57.136435     -29.034337     -52.95787       58.312576    
   3043000   299.98548      0.89419758     0.69181659     1.5860142      214.57132      109.18217      160.00538     -269.17824     -23.236351      9.7274322     -127.3009      -51.585924     -8.6771492    
   3044000   300.69192      0.89630334     0.69088145     1.5871848      214.70235      109.14843      159.77461      27.127882     -121.24246      191.02144     -54.179804     -9.2452343      59.117522    
   3045000   300.13362      0.89463914     0.69098578     1.5856249      214.58991      109.18442      160.00458     -11.919642     -255.50874     -79.60737       20.638378     -8.7729854      98.386343    
   3046000   300.35433      0.89529703     0.69291724     1.5882143      214.38169      109.15405      160.06419      112.64984      40.724087      10.399907     -43.992172      76.963392     -62.737439    
   3047000   300.30505      0.89515015     0.69198874     1.5871389      214.52574      109.1155       160.03513      33.866656     -37.927652      103.31289      156.34559     -62.773257      97.929941    
   3048000   300.00903      0.89426777     0.69112608     1.5853938      214.41948      109.16261      160.02709     -79.837011      22.132395     -308.46321      78.797558     -112.33763     -88.546313    
   3049000   300.67302      0.89624701     0.69192115     1.5881682      214.33891      109.10448      159.93869     -115.04459      124.355        90.781801      19.317507      122.39022      69.393014    
   3050000   299.72708      0.89342732     0.69100161     1.5844289      214.46423      109.16578      159.86004     -56.697214      84.449139      53.826013      143.10991      35.336089     -129.29321    
Loop time of 771.165 on 256 procs for 50000 steps with 414720 atoms

Performance: 5.602 ns/day, 4.284 hours/ns, 64.837 timesteps/s, 26.889 Matom-step/s
99.4% CPU use with 256 MPI tasks x no OpenMP threads

MPI task timing breakdown:
Section |  min time  |  avg time  |  max time  |%varavg| %total
---------------------------------------------------------------
Pair    | 313.91     | 337.8      | 350.06     |  32.8 | 43.80
Bond    | 14.136     | 15.353     | 15.941     |   7.6 |  1.99
Kspace  | 111.03     | 124.45     | 151.47     |  66.2 | 16.14
Neigh   | 164.29     | 168.93     | 173.04     |  18.0 | 21.91
Comm    | 82.951     | 93.519     | 110.3      |  83.2 | 12.13
Output  | 0.010757   | 0.01542    | 0.022108   |   2.1 |  0.00
Modify  | 19.79      | 25.982     | 30.919     |  61.0 |  3.37
Other   |            | 5.115      |            |       |  0.66

Nlocal:           1620 ave        1670 max        1532 min
Histogram: 4 1 4 5 33 53 61 60 25 10
Nghost:        8564.36 ave        8694 max        8388 min
Histogram: 4 5 11 29 34 50 53 36 27 7
Neighs:         377911 ave      392786 max      346705 min
Histogram: 3 2 1 10 13 42 63 66 37 19

Total # of neighbors = 96745264
Ave neighs/atom = 233.27851
Ave special neighs/atom = 9.4
Neighbor list builds = 6921
Dangerous builds = 2
unfix           5
######################################
# SIMULATION DONE
Total wall time: 13:40:15
