LAMMPS (27 Jun 2024)
include lmp.in
#smiles: Cc1c(C)c(C)c(C)c(C)c1C
units real
atom_style full

dimension 3
boundary p p p  #p p m

bond_style hybrid harmonic
angle_style hybrid harmonic
dihedral_style hybrid charmm
# special_bonds amber # same as special_bonds lj 0.0 0.0 0.5000 coul 0.0 0.0 0.83333
special_bonds amber lj 0.0 0.0 0.50000 coul 0.0 0.0 0.83333 angle yes dihedral no
box tilt large

The 'box' command has been removed and will be ignored


read_data lmp.dat
Reading data file ...
  triclinic box = (0 0 0) to (30.8471 17.6224 57.5148) with tilt (0.0233 -6.027 -0.9687)
  8 by 4 by 8 MPI processor grid
  reading atoms ...
  3840 atoms
  reading velocities ...
  3840 velocities
  scanning bonds ...
  4 = max bonds/atom
  scanning angles ...
  6 = max angles/atom
  scanning dihedrals ...
  8 = max dihedrals/atom
  triclinic box = (0 0 0) to (30.8471 17.6224 57.5148) with tilt (0.0233 -6.027 -0.9687)
  8 by 4 by 8 MPI processor grid
  reading bonds ...
  3840 bonds
  reading angles ...
  6912 angles
  reading dihedrals ...
  3840 dihedrals
Finding 1-2 1-3 1-4 neighbors ...
  special bond factors lj:    0        0        0.5     
  special bond factors coul:  0        0        0.83333 
     4 = max # of 1-2 neighbors
     7 = max # of 1-3 neighbors
    17 = max # of 1-4 neighbors
  13824 = # of 1-3 neighbors before angle trim
  13824 = # of 1-3 neighbors after angle trim
    19 = max # of special neighbors
  special bonds CPU = 0.467 seconds
  read_data CPU = 0.540 seconds

neighbor 2.0 multi
neigh_modify every 2 delay 4 check yes
#neigh_modify every 2 delay 10

pair_style lj/cut/coul/long 9.0 9.0
pair_modify mix arithmetic shift no tail yes
kspace_style pppm 0.0005
kspace_modify gewald 0.29202898720871845 mesh 32 32 60 order 6

pair_coeff 1 1   0.1094000   3.3996695
pair_coeff 2 2   0.0860000   3.3996695
pair_coeff 3 3   0.0157000   2.6495328

#pair_modify mix arithmetic
thermo_style custom step temp vol press etotal pe ke epair ecoul elong evdwl ebond eangle edihed eimp emol etail #    cella cellb cellc cellalpha cellbeta cellgamma density pxx pyy pzz pxy pxy pyz
thermo_modify lost ignore flush yes

#compute peatom all pe/atom
#dump 1 all custom 1 dump.lammpstrj id type q x y z fx fy fz c_peatom element
#dump_modify 1 sort id pad 9 element C C H

#minimize 1e-5 1e-5 100 100
#run 0

variable temperature equal      300.000
variable patm equal        1.000
variable dt equal        1.000
variable trelax equal   50000.000
variable deform_steps equal       50.000
variable ele_string string "C C H"
variable strain_total equal        0.30
variable strainrate equal 2.000000e+08
variable direction1 string yz
variable direction2 string xz
replicate  6 6 3
Replication is creating a 6x6x3 = 108 times larger system...
  triclinic box = (0 0 0) to (185.0826 105.7344 172.5444) with tilt (0.1398 -18.081 -2.9061)
  8 by 4 by 8 MPI processor grid
  414720 atoms
  414720 bonds
  746496 angles
  414720 dihedrals
Finding 1-2 1-3 1-4 neighbors ...
  special bond factors lj:    0        0        0.5     
  special bond factors coul:  0        0        0.83333 
     4 = max # of 1-2 neighbors
     7 = max # of 1-3 neighbors
    17 = max # of 1-4 neighbors
  1492992 = # of 1-3 neighbors before angle trim
  1492992 = # of 1-3 neighbors after angle trim
    19 = max # of special neighbors
  special bonds CPU = 0.018 seconds
  replicate CPU = 0.049 seconds
#include lmp.in

variable srate      equal ${strainrate}/1e15
variable srate      equal 200000000/1e15
variable thermo     equal "ceil(abs(1e12 / v_strainrate))"
variable tdamp      equal 100*${dt}
variable tdamp      equal 100*1
variable pdamp      equal 1000*${dt}
variable pdamp      equal 1000*1
variable pe         equal pe

# for units real, pressure is in [atmospheres] = 0.101325 [MPa]
variable sxx        equal "-pxx*0.101325"
variable syy        equal "-pyy*0.101325"
variable szz        equal "-pzz*0.101325"
variable sxz        equal "-pxz*0.101325"
variable syz        equal "-pyz*0.101325"
variable sxy        equal "-pxy*0.101325"
variable steps      equal ceil(abs(${strain_total}/${srate}))
variable steps      equal ceil(abs(0.3/${srate}))
variable steps      equal ceil(abs(0.3/2e-07))
variable dump_steps equal ceil(${steps}/${deform_steps})
variable dump_steps equal ceil(1500000/${deform_steps})
variable dump_steps equal ceil(1500000/50)
variable strain     equal "step*v_srate"
variable    xcm     equal xcm(all,x)
variable    ycm     equal xcm(all,y)
variable    zcm     equal xcm(all,z)
variable    xhi     equal xhi
variable    yhi     equal yhi
variable    zhi     equal zhi
variable    xlo     equal xlo
variable    ylo     equal ylo
variable    zlo     equal zlo
variable    xy      equal xy
variable    xz      equal xz
variable    yz      equal yz


print "strainrate ${strainrate}"
strainrate 200000000
print "srate ${srate}"
srate 2e-07
print "steps ${steps}"
steps 1500000
print "dump_steps ${dump_steps}"
dump_steps 30000


thermo          1000
neighbor        1.0    bin
neigh_modify    every 1 delay 5 check yes
thermo_style    custom step temp ke pe etotal lx ly lz pxx pyy pzz pxy pxz pyz vol
WARNING: New thermo_style command, previous thermo_modify settings will be lost (../output.cpp:904)
thermo_modify   lost warn norm yes
timestep 	    ${dt}
timestep 	    1

#======================== Energy minimization
min_style       cg
minimize        1.0e-25 1.0e-25 100 100000

CITE-CITE-CITE-CITE-CITE-CITE-CITE-CITE-CITE-CITE-CITE-CITE-CITE

Your simulation uses code contributions which should be cited:

- Type Label Framework: https://doi.org/10.1021/acs.jpcb.3c08419

@Article{Gissinger24,
 author = {Jacob R. Gissinger, Ilia Nikiforov, Yaser Afshar, Brendon Waters, Moon-ki Choi, Daniel S. Karls, Alexander Stukowski, Wonpil Im, Hendrik Heinz, Axel Kohlmeyer, and Ellad B. Tadmor},
 title = {Type Label Framework for Bonded Force Fields in LAMMPS},
 journal = {J. Phys. Chem. B},
 year =    2024,
 volume =  128,
 number =  13,
 pages =   {3282â€“-3297}
}

- neighbor multi command: doi:10.1016/j.cpc.2008.03.005, doi:10.1007/s40571-020-00361-2

@Article{Intveld08,
 author =  {in 't Veld, P. J. and S. J.~Plimpton and G. S. Grest},
 title =   {Accurate and Efficient Methods for Modeling Colloidal
            Mixtures in an Explicit Solvent using Molecular Dynamics},
 journal = {Comput.\ Phys.\ Commut.},
 year =    2008,
 volume =  179,
 pages =   {320--329}
}

@article{Shire2020,
 author = {Shire, Tom and Hanley, Kevin J. and Stratford, Kevin},
 title = {{DEM} Simulations of Polydisperse Media: Efficient Contact
          Detection Applied to Investigate the Quasi-Static Limit},
 journal = {Computational Particle Mechanics},
 year = {2020}
@article{Monti2022,
 author = {Monti, Joseph M. and Clemmer, Joel T. and Srivastava, 
           Ishan and Silbert, Leonardo E. and Grest, Gary S. 
           and Lechman, Jeremy B.},
 title = {Large-scale frictionless jamming with power-law particle 
          size distributions},
 journal = {Phys. Rev. E},
 volume = {106}
 issue = {3}
 year = {2022}
}

CITE-CITE-CITE-CITE-CITE-CITE-CITE-CITE-CITE-CITE-CITE-CITE-CITE

Switching to 'neigh_modify every 1 delay 0 check yes' setting during minimization
PPPM initialization ...
  using 12-bit tables for long-range coulomb (../kspace.cpp:342)
  G vector (1/distance) = 0.29202899
  grid = 32 32 60
  stencil order = 6
  estimated absolute RMS force accuracy = 2.8571248
  estimated relative force accuracy = 0.0086041466
  using double precision KISS FFT
  3d grid and FFT values/proc = 2310 256
Generated 3 of 3 mixed pair_coeff terms from arithmetic mixing rule
Neighbor list info ...
  update: every = 1 steps, delay = 0 steps, check = yes
  max neighbors/atom: 2000, page size: 100000
  master list distance cutoff = 10
  ghost atom cutoff = 10
  binsize = 5, bins = 41 22 35
  1 neighbor lists, perpetual/occasional/extra = 1 0 0
  (1) pair lj/cut/coul/long, perpetual
      attributes: half, newton on
      pair build: half/bin/newton/tri
      stencil: half/bin/3d/tri
      bin: standard
Per MPI rank memory allocation (min/avg/max) = 17.26 | 17.26 | 17.27 Mbytes
   Step          Temp          KinEng         PotEng         TotEng           Lx             Ly             Lz            Pxx            Pyy            Pzz            Pxy            Pxz            Pyz           Volume    
         0   0              0              4.2825885      4.2825885      185.0826       105.7344       172.5444       137338.95      121512.06      216523.6      -4296.0927     -4806.8582      2648.8182      3376624.5    
        66   0              0             -0.29790531    -0.29790531     185.0826       105.7344       172.5444      -3083.867      -2732.5982      932.45944     -920.37903     -782.45777      327.3653       3376624.5    
Loop time of 3.31684 on 256 procs for 66 steps with 414720 atoms

98.7% CPU use with 256 MPI tasks x no OpenMP threads

Minimization stats:
  Stopping criterion = linesearch alpha is zero
  Energy initial, next-to-last, final = 
      4.28258852997219  -0.29790530902869 -0.297905309028693
  Force two-norm initial, final = 59619.755 27.935035
  Force max component initial, final = 140.90257 0.10194492
  Final line search alpha, max atom move = 6.5855622e-06 6.7136463e-07
  Iterations, force evaluations = 66 163

MPI task timing breakdown:
Section |  min time  |  avg time  |  max time  |%varavg| %total
---------------------------------------------------------------
Pair    | 1.7682     | 1.8352     | 2.5356     |   4.1 | 55.33
Bond    | 0.045015   | 0.045727   | 0.050244   |   0.3 |  1.38
Kspace  | 0.38229    | 1.0815     | 1.1573     |   5.4 | 32.61
Neigh   | 0          | 0          | 0          |   0.0 |  0.00
Comm    | 0.21404    | 0.25277    | 0.29262    |   3.3 |  7.62
Output  | 0          | 0          | 0          |   0.0 |  0.00
Modify  | 0          | 0          | 0          |   0.0 |  0.00
Other   |            | 0.1017     |            |       |  3.07

Nlocal:           1620 ave        1620 max        1620 min
Histogram: 256 0 0 0 0 0 0 0 0 0
Nghost:           9027 ave        9045 max        9009 min
Histogram: 128 0 0 0 0 0 0 0 0 128
Neighs:         413478 ave      414651 max      412306 min
Histogram: 9 19 4 36 54 71 33 6 15 9

Total # of neighbors = 1.0585037e+08
Ave neighs/atom = 255.23333
Ave special neighs/atom = 9.4
Neighbor list builds = 0
Dangerous builds = 0
#fix             BoxRelax all box/relax tri 0.0  vmax 0.01 nreset 10 fixedpoint ${xcm} ${ycm} ${zcm}
#minimize        1.0e-25 1.0e-25 100 100# 000 1000000
#unfix           BoxRelax
dump            1 all custom 10000 0.dump element id mol type x y z
undump          1

#========================= Global setting for NPT simulation
fix             langevin all langevin ${temperature} ${temperature} ${tdamp} 32258453 zero yes
fix             langevin all langevin 300 ${temperature} ${tdamp} 32258453 zero yes
fix             langevin all langevin 300 300 ${tdamp} 32258453 zero yes
fix             langevin all langevin 300 300 100 32258453 zero yes

#======================== NPT equilibration
velocity        all create ${temperature} 1938072 mom yes rot no
velocity        all create 300 1938072 mom yes rot no
#fix             1 all npt temp ${temperature} ${temperature} ${tdamp} iso ${pressure} ${pressure} ${pdamp}
fix             1 all nph tri ${patm} ${patm} ${pdamp} fixedpoint ${xcm} ${ycm} ${zcm} flip no
fix             1 all nph tri 1 ${patm} ${pdamp} fixedpoint ${xcm} ${ycm} ${zcm} flip no
fix             1 all nph tri 1 1 ${pdamp} fixedpoint ${xcm} ${ycm} ${zcm} flip no
fix             1 all nph tri 1 1 1000 fixedpoint ${xcm} ${ycm} ${zcm} flip no
fix             1 all nph tri 1 1 1000 fixedpoint 86.4620903653394 ${ycm} ${zcm} flip no
fix             1 all nph tri 1 1 1000 fixedpoint 86.4620903653394 51.0010969797264 ${zcm} flip no
fix             1 all nph tri 1 1 1000 fixedpoint 86.4620903653394 51.0010969797264 86.2722299428767 flip no

dump            1 all custom 20000 equilibrium.*.dump element id mol type x y z
dump_modify     1 element ${ele_string}
dump_modify     1 element C C H
run             ${trelax}
run             50000
PPPM initialization ...
  using 12-bit tables for long-range coulomb (../kspace.cpp:342)
  G vector (1/distance) = 0.29202899
  grid = 32 32 60
  stencil order = 6
  estimated absolute RMS force accuracy = 2.8571248
  estimated relative force accuracy = 0.0086041466
  using double precision KISS FFT
  3d grid and FFT values/proc = 2310 256
Generated 3 of 3 mixed pair_coeff terms from arithmetic mixing rule
Per MPI rank memory allocation (min/avg/max) = 16.13 | 16.14 | 16.14 Mbytes
   Step          Temp          KinEng         PotEng         TotEng           Lx             Ly             Lz            Pxx            Pyy            Pzz            Pxy            Pxz            Pyz           Volume    
        66   300            0.89424086    -0.29790531     0.59633555     185.0826       105.7344       172.5444       1936.1799      2288.2198      5953.5316     -915.01976     -777.79983      338.82374      3376624.5    
      1000   299.15114      0.89171057     0.6376395      1.5293501      187.01314      106.86303      177.01804      1220.0525      746.8448       3154.4328     -172.95873     -345.24868     -142.74555      3537668.6    
      2000   299.55287      0.89290806     0.65918426     1.5520923      188.05951      107.29145      179.69589      244.94821     -82.016403      1205.7198     -65.899354     -182.33029     -27.678196      3625755.8    
      3000   299.72744      0.89342841     0.66941451     1.5628429      188.49172      107.38955      181.16577      54.398617      47.026         353.73159     -82.925292     -70.467215     -172.82379      3667165      
      4000   299.87966      0.89388215     0.67200315     1.5658853      188.63404      107.41023      181.76147     -214.53727     -353.09135      135.72612     -132.22037     -207.2471      -128.9693       3682710      
      5000   300.13398      0.89464023     0.67503084     1.5696711      188.75902      107.42384      181.99131     -77.43922      -78.869194      64.852979     -22.274742      0.46428072    -76.491933      3690277.6    
      6000   300.27024      0.8950464      0.6748825      1.5699289      188.79549      107.44555      181.99241      383.63696     -5.3990097      3.3259899     -70.275156     -126.42354     -41.462017      3691758.9    
      7000   299.91246      0.89397993     0.67615869     1.5701386      188.81427      107.43446      181.9949      -25.048655     -107.82245      34.960608      87.601957     -62.419121      54.688307      3691795.4    
      8000   300.06104      0.89442282     0.67734061     1.5717634      188.82598      107.42832      182.07591      167.8975      -24.243888     -37.309229     -62.910228      38.994074      62.494398      3693456.7    
      9000   300.9089       0.89695012     0.67295601     1.5699061      188.73905      107.41974      182.0693       72.153589      66.476698      211.93189     -30.833636      80.321607      101.24745      3691327.6    
     10000   299.1125       0.8915954      0.67502447     1.5666199      188.85254      107.44021      182.13895     -139.09378      28.0463       -81.055427     -123.88399      20.714478      53.818667      3695664.2    
     11000   299.73874      0.89346209     0.67463632     1.5680984      188.85563      107.4577       182.05601     -52.44521      -137.69641      119.05594     -102.68106      14.885307      47.995424      3694643.1    
     12000   300.54321      0.89586005     0.6731105      1.5689706      188.73718      107.38983      181.96338      487.05004      230.78493      157.51128     -99.085571     -68.115429     -112.81114      3688116.1    
     13000   300.7302       0.89641743     0.67319053     1.569608       188.81464      107.4294       182.03138      344.16048      109.36942      67.428003      32.131035      15.40293       16.219627      3692368.9    
     14000   299.64481      0.8931821      0.67600509     1.5691872      188.82858      107.42303      182.0403      -15.725563     -210.59616     -16.844477     -107.73402      51.585281      94.790899      3692603.3    
     15000   299.6498       0.89319697     0.67313426     1.5663312      188.70211      107.4301       182.0828      -4.0498255     -44.966986     -13.421077     -52.83274       85.18994      -109.22326      3691234.6    
     16000   299.75297      0.89350452     0.67572065     1.5692252      188.80339      107.48082      182.03883     -33.770373     -51.871867     -114.19493     -155.98755     -48.297062      66.720151      3694067.3    
     17000   300.7842       0.89657842     0.67674362     1.573322       188.77408      107.4617       182.0194       30.153148      19.923928     -47.469101      314.73964      84.432914      71.432204      3692442.4    
     18000   299.95743      0.89411397     0.67370981     1.5678238      188.85257      107.42405      181.96838     -16.355045     -160.03674     -23.883235     -67.564534      19.986247      16.884298      3691648.6    
     19000   300.6516       0.89618314     0.6738866      1.5700697      188.86327      107.40668      182.03885      42.00733       95.5482       -99.154363      24.75801      -51.259036      100.29495      3692690.3    
     20000   300.0387       0.8943562      0.67727334     1.5716295      188.85142      107.41433      182.17154     -225.31188      196.32153      68.003502     -99.723996     -98.949634     -13.443621      3695413.3    
     21000   299.35761      0.89232603     0.67527299     1.567599       188.75718      107.43211      182.09331      171.64505      59.034283     -99.925016     -129.59108     -21.36674       73.108423      3692594.1    
     22000   300.21501      0.89488177     0.67616416     1.5710459      188.82344      107.46608      182.06235     -50.43781      -69.661105     -22.257982     -69.504324     -31.68908      -52.991662      3694430.2    
     23000   299.90418      0.89395525     0.67765528     1.5716105      188.83872      107.44896      182.0019      -79.306571     -127.14328      165.10895      60.60756      -111.63648     -39.215666      3692914      
     24000   299.5457       0.89288668     0.67699725     1.5698839      188.76205      107.45259      181.97275      30.888921     -89.085257      98.740728     -69.935359      193.27457      76.144989      3690947.9    
     25000   300.51495      0.89577584     0.67560498     1.5713808      188.85696      107.43642      182.01277     -280.46663      302.17542     -49.355684      8.6724844      73.369155     -132.18498      3693060.1    
     26000   300.28399      0.89508739     0.67802799     1.5731154      188.71562      107.47925      182.11695      92.230348     -230.25205     -145.2457       85.13672      -58.231816     -46.888861      3693880.4    
     27000   299.78196      0.89359093     0.67606666     1.5696576      188.65417      107.47671      182.02059      45.233385      226.17864     -132.49265      41.751036     -11.240277      87.982763      3690636.6    
     28000   300.15416      0.89470038     0.67667597     1.5713764      188.81634      107.48278      182.03842     -232.01599     -160.85624     -59.98015       80.085046     -81.360134     -60.039095      3694379.6    
     29000   300.19595      0.89482494     0.67646613     1.5712911      188.80748      107.43325      182.06071      413.36773      392.57377      44.482562     -63.121527      142.59481      20.749136      3692956      
     30000   300.28454      0.89508903     0.67758708     1.5726761      188.88456      107.45531      182.10681      77.44174       24.263186     -215.34584      104.42509     -141.75849      35.224417      3696157.8    
     31000   300.04796      0.89438382     0.67604415     1.570428       188.76966      107.46783      181.95507      297.449       -3.7867571      31.679694     -113.70696     -14.359561      52.543841      3691261.8    
     32000   299.15155      0.8917118      0.67520859     1.5669204      188.79829      107.46932      182.04585     -193.0329       160.38815     -90.20136       271.07091      74.546065      29.688485      3693714.4    
     33000   300.43469      0.89553658     0.67799139     1.573528       188.73962      107.47784      181.99001      153.16284     -23.011525      34.966703      177.78345      112.74231     -14.351027      3691726.8    
     34000   300.21034      0.89486784     0.67593208     1.5707999      188.75871      107.43895      181.86502     -29.377344      62.988097     -85.707418     -6.4276547     -39.832106     -80.341006      3688229.5    
     35000   300.22796      0.89492036     0.67691876     1.5718391      188.78578      107.46085      181.97074     -130.62944     -67.813544     -37.50117      -145.4821       36.352644     -34.780664      3691654.8    
     36000   299.99761      0.89423373     0.67548312     1.5697169      188.8799       107.47626      181.95938     -92.069443      148.18126      3.6394708     -62.865255      63.651672     -6.9918236      3693794.6    
     37000   300.32926      0.89522232     0.67565709     1.5708794      188.71674      107.41581      181.99197     -10.515232     -80.855973     -164.41544     -158.96538     -34.476644      37.082086      3689188.7    
     38000   300.10071      0.89454106     0.67686614     1.5714072      188.8243       107.41172      182.09423     -333.83317     -165.49437     -76.4157       -309.22081      40.405622      94.251773      3693224.6    
     39000   300.54805      0.89587449     0.67488057     1.5707551      188.84142      107.39297      182.00915     -83.542186     -110.58917     -102.15268     -210.75134      46.491518      82.887364      3691189.5    
     40000   300.02766      0.8943233      0.67456454     1.5688878      188.76906      107.41092      182.08547      197.7301      -87.467079     -138.14541      72.326025     -12.983386      83.04631       3691938.9    
     41000   300.42726      0.89551442     0.67598232     1.5714967      188.8197       107.44536      182.04581      153.64128      230.66991      88.626262     -123.76365      39.31764      -86.438187      3693308.9    
     42000   300.18925      0.89480498     0.67377769     1.5685827      188.74709      107.43684      182.02927      160.03076     -13.834525     -47.846257     -29.906398     -6.9277437     -27.164733      3691260.8    
     43000   300.16019      0.89471836     0.67499552     1.5697139      188.78362      107.45027      182.00389     -119.81456     -128.77371      52.60871      -70.714371     -115.9509       118.55425      3691921.9    
     44000   299.71975      0.8934055      0.67454688     1.5679524      188.681        107.47578      182.05346      39.267152     -187.85755      113.3157       23.366737     -47.548159      23.528179      3691796.1    
     45000   299.91098      0.89397551     0.67675785     1.5707334      188.77461      107.43         181.94276     -299.36531     -288.10395     -170.12476     -251.58467     -71.353711      105.09946      3689809.3    
     46000   299.69575      0.89333396     0.67387092     1.5672049      188.72585      107.40033      182.01744      68.456181     -310.73962      139.98317      104.05156     -59.496336     -18.486125      3689351.5    
     47000   299.84822      0.89378842     0.67416485     1.5679533      188.74092      107.42026      182.04689      247.18481      373.24632      13.115169      23.30118       35.417114     -97.874005      3690927.7    
     48000   299.85234      0.8938007      0.67587965     1.5696803      188.82761      107.42563      182.03499      75.509312     -86.064447      38.498771      8.9665731     -25.924403      167.59193      3692566.4    
     49000   299.61266      0.89308628     0.67616382     1.5692501      188.74792      107.4048       182.03495     -59.996566      190.05036     -258.65902      32.939656      44.501911     -75.558155      3690291      
     50000   299.54629      0.89288844     0.6755794      1.5684678      188.80866      107.44838      181.92888     -158.22627      201.49742     -41.826342     -0.2396972     -155.4278       2.9367824      3690824.7    
     50066   300.15078      0.8946903      0.67420195     1.5688923      188.82297      107.46697      181.92551     -10.655466      64.828491      210.97228     -40.857641     -131.48732      53.938005      3691674.7    
Loop time of 761.945 on 256 procs for 50000 steps with 414720 atoms

Performance: 5.670 ns/day, 4.233 hours/ns, 65.622 timesteps/s, 27.215 Matom-step/s
99.4% CPU use with 256 MPI tasks x no OpenMP threads

MPI task timing breakdown:
Section |  min time  |  avg time  |  max time  |%varavg| %total
---------------------------------------------------------------
Pair    | 338.25     | 343.4      | 351.58     |  12.2 | 45.07
Bond    | 15.176     | 15.444     | 15.9       |   3.2 |  2.03
Kspace  | 103.28     | 114.52     | 123.23     |  36.6 | 15.03
Neigh   | 167.37     | 171.18     | 174.38     |  13.0 | 22.47
Comm    | 75.237     | 87.872     | 101.09     |  61.8 | 11.53
Output  | 0.021206   | 0.039782   | 0.054497   |   4.8 |  0.01
Modify  | 19.241     | 24.335     | 27.904     |  34.4 |  3.19
Other   |            | 5.149      |            |       |  0.68

Nlocal:           1620 ave        1644 max        1596 min
Histogram: 2 7 20 45 52 58 38 24 8 2
Nghost:        8469.58 ave        8581 max        8380 min
Histogram: 11 17 40 44 42 43 27 23 6 3
Neighs:         383148 ave      390961 max      377327 min
Histogram: 13 24 28 53 45 45 21 18 7 2

Total # of neighbors = 98085975
Ave neighs/atom = 236.51132
Ave special neighs/atom = 9.4
Neighbor list builds = 6916
Dangerous builds = 1
unfix           1
undump          1

variable	yzv 	equal	yz
variable	yzzo	equal	${yzv}
variable	yzzo	equal	-6.30576165965616

#========================DEFORMATION
reset_timestep  0
dump            1 all custom ${dump_steps} shear.*.dump element id mol type x y z
dump            1 all custom 30000 shear.*.dump element id mol type x y z
dump_modify     1 element ${ele_string}
dump_modify     1 element C C H
compute         cc1 all chunk/atom molecule
compute         myChunk all com/chunk cc1

fix             1 all nph x ${patm} ${patm} ${pdamp}  y ${patm} ${patm} ${pdamp} z ${patm} ${patm} ${pdamp} xy ${patm} ${patm} ${pdamp} fixedpoint ${xcm} ${ycm} ${zcm}
fix             1 all nph x 1 ${patm} ${pdamp}  y ${patm} ${patm} ${pdamp} z ${patm} ${patm} ${pdamp} xy ${patm} ${patm} ${pdamp} fixedpoint ${xcm} ${ycm} ${zcm}
fix             1 all nph x 1 1 ${pdamp}  y ${patm} ${patm} ${pdamp} z ${patm} ${patm} ${pdamp} xy ${patm} ${patm} ${pdamp} fixedpoint ${xcm} ${ycm} ${zcm}
fix             1 all nph x 1 1 1000  y ${patm} ${patm} ${pdamp} z ${patm} ${patm} ${pdamp} xy ${patm} ${patm} ${pdamp} fixedpoint ${xcm} ${ycm} ${zcm}
fix             1 all nph x 1 1 1000  y 1 ${patm} ${pdamp} z ${patm} ${patm} ${pdamp} xy ${patm} ${patm} ${pdamp} fixedpoint ${xcm} ${ycm} ${zcm}
fix             1 all nph x 1 1 1000  y 1 1 ${pdamp} z ${patm} ${patm} ${pdamp} xy ${patm} ${patm} ${pdamp} fixedpoint ${xcm} ${ycm} ${zcm}
fix             1 all nph x 1 1 1000  y 1 1 1000 z ${patm} ${patm} ${pdamp} xy ${patm} ${patm} ${pdamp} fixedpoint ${xcm} ${ycm} ${zcm}
fix             1 all nph x 1 1 1000  y 1 1 1000 z 1 ${patm} ${pdamp} xy ${patm} ${patm} ${pdamp} fixedpoint ${xcm} ${ycm} ${zcm}
fix             1 all nph x 1 1 1000  y 1 1 1000 z 1 1 ${pdamp} xy ${patm} ${patm} ${pdamp} fixedpoint ${xcm} ${ycm} ${zcm}
fix             1 all nph x 1 1 1000  y 1 1 1000 z 1 1 1000 xy ${patm} ${patm} ${pdamp} fixedpoint ${xcm} ${ycm} ${zcm}
fix             1 all nph x 1 1 1000  y 1 1 1000 z 1 1 1000 xy 1 ${patm} ${pdamp} fixedpoint ${xcm} ${ycm} ${zcm}
fix             1 all nph x 1 1 1000  y 1 1 1000 z 1 1 1000 xy 1 1 ${pdamp} fixedpoint ${xcm} ${ycm} ${zcm}
fix             1 all nph x 1 1 1000  y 1 1 1000 z 1 1 1000 xy 1 1 1000 fixedpoint ${xcm} ${ycm} ${zcm}
fix             1 all nph x 1 1 1000  y 1 1 1000 z 1 1 1000 xy 1 1 1000 fixedpoint 85.02833104526 ${ycm} ${zcm}
fix             1 all nph x 1 1 1000  y 1 1 1000 z 1 1 1000 xy 1 1 1000 fixedpoint 85.02833104526 49.325075314052 ${zcm}
fix             1 all nph x 1 1 1000  y 1 1 1000 z 1 1 1000 xy 1 1 1000 fixedpoint 85.02833104526 49.325075314052 86.2722299428765
#fix             1 all nph tri ${patm} ${patm} ${pdamp}
fix             2 all ave/time 2 100 ${thermo} v_strain v_sxx v_syy v_szz v_sxz v_syz v_sxy v_pe file output.dat
fix             2 all ave/time 2 100 5000 v_strain v_sxx v_syy v_szz v_sxz v_syz v_sxy v_pe file output.dat
fix             6 all ave/time 2 100 ${thermo} c_myChunk[*] file center.dat mode vector
fix             6 all ave/time 2 100 5000 c_myChunk[*] file center.dat mode vector
fix             7 all print ${thermo} "${xhi} ${xlo} ${yhi} ${ylo} ${zhi} ${zlo} ${xy} ${xz} ${yz}" screen no file box_parameters.dat
fix             7 all print 5000 "${xhi} ${xlo} ${yhi} ${ylo} ${zhi} ${zlo} ${xy} ${xz} ${yz}" screen no file box_parameters.dat


#======================== load
fix             3 all deform 1 yz erate ${srate} units box remap x flip no
fix             3 all deform 1 yz erate 2e-07 units box remap x flip no
run             ${steps}
run             1500000
PPPM initialization ...
  using 12-bit tables for long-range coulomb (../kspace.cpp:342)
  G vector (1/distance) = 0.29202899
  grid = 32 32 60
  stencil order = 6
  estimated absolute RMS force accuracy = 3.4436319
  estimated relative force accuracy = 0.010370395
  using double precision KISS FFT
  3d grid and FFT values/proc = 2310 256
Generated 3 of 3 mixed pair_coeff terms from arithmetic mixing rule
Per MPI rank memory allocation (min/avg/max) = 16.4 | 16.41 | 16.41 Mbytes
   Step          Temp          KinEng         PotEng         TotEng           Lx             Ly             Lz            Pxx            Pyy            Pzz            Pxy            Pxz            Pyz           Volume    
         0   300.15078      0.8946903      0.67420195     1.5688923      188.82297      107.46697      181.92551     -10.655466      64.828491      210.97228     -40.857641     -131.48732      53.938005      3691674.7    
      1000   300.19846      0.89483244     0.67796401     1.5727965      188.826        107.42247      182.03024      373.04061      270.32267      49.445358      52.691901      23.861616     -15.339872      3692329.7    
      2000   299.55346      0.89290981     0.67492684     1.5678366      188.7434       107.41747      182.04599     -175.49018      314.64647      87.343015      20.684827     -71.212999     -42.772439      3690861.9    
      3000   299.72256      0.89341385     0.67245204     1.5658659      188.75364      107.4486       182.04095      183.13723      241.53681     -54.965517     -0.63467844    -90.059945     -32.037315      3692029.8    
      4000   300.71175      0.89636246     0.67365148     1.5700139      188.8498       107.4534       182.10019      50.89202      -60.763966     -176.25051     -40.337867     -182.17603      151.03884      3695277.8    
      5000   299.4078       0.89247562     0.67366976     1.5661454      188.82466      107.44762      182.00763     -222.46405     -121.70638      31.851169     -20.185297     -25.8915        47.169347      3692709.2    
      6000   300.23112      0.89492978     0.67631871     1.5712485      188.76766      107.42757      182.16121     -48.143118     -20.047814     -173.9436       42.175089     -67.402439     -23.689789      3694019.9    
      7000   300.54754      0.89587295     0.67630723     1.5721802      188.78636      107.4317       182.04151      201.5775       297.71351      86.460905      158.85638     -73.024742     -43.693558      3692100.4    
      8000   300.16002      0.89471784     0.67470147     1.5694193      188.78285      107.44125      181.95721     -87.571058      26.31728      -16.465991      97.550169     -22.581889      17.633558      3690650.1    
      9000   299.90444      0.89395602     0.67645224     1.5704083      188.83495      107.45969      182.08476      97.113251     -109.64789     -243.26746      107.05378     -16.467277     -51.027134      3694890.4    
     10000   300.15898      0.89471474     0.67505521     1.56977        188.75323      107.46451      182.04654      343.08852      399.98168      77.516534      54.841481      175.26308      96.756539      3692681.9    
     11000   300.07815      0.89447381     0.6756347      1.5701085      188.74166      107.43834      182.10794      204.32612      224.80236     -128.21151      41.252172      104.86712      51.878761      3692801.5    
     12000   300.00817      0.89426521     0.67429629     1.5685615      188.75024      107.4169       182.00301      69.287555      182.99818     -92.057378     -12.678654     -29.363689     -143.51272      3690104.7    
     13000   299.80851      0.89367005     0.67416628     1.5678363      188.80066      107.43249      182.02948      19.191478     -39.001608      120.90196      67.203048      68.190355      44.422778      3692163.2    
     14000   300.55701      0.89590119     0.67521914     1.5711203      188.8564       107.47312      181.99181     -38.968417     -150.02651      120.94103     -2.7632073     -10.271625      210.43107      3693885.1    
     15000   300.09581      0.89452644     0.67390234     1.5684288      188.77603      107.39693      182.05823      331.97634      1.0376896      23.376454      56.19759      -5.2693618      113.206        3691042.4    
     16000   299.95134      0.89409582     0.67558982     1.5696856      188.74665      107.42325      182.1469       198.09638      108.16156     -143.98572     -106.69015      106.86731      41.676115      3693170      
     17000   300.65244      0.89618567     0.67433171     1.5705174      188.84184      107.4735       182.04484     -122.47018     -265.82752     -197.05283     -29.277579      15.560576     -53.502933      3694690      
     18000   299.60427      0.89306127     0.67564758     1.5687088      188.81041      107.44835      182.02703     -207.56168     -102.97957      133.65152      111.28549      84.184754     -55.944829      3692849      
     19000   300.12399      0.89461044     0.67420087     1.5688113      188.80738      107.46011      181.87233      247.79092      78.208524      102.93354      196.49728      79.379764      10.988533      3690055.3    
     20000   300.1503       0.89468887     0.67556769     1.5702566      188.7597       107.42887      182.08277     -72.566985     -102.36815     -190.3401       212.98639      109.74566      48.413239      3692318.2    
     21000   300.01444      0.89428389     0.67627125     1.5705551      188.79638      107.45432      182.08073      304.77948     -314.59085      21.20475      -287.54311      104.02672      64.727402      3693869.4    
     22000   300.62368      0.89609994     0.67325682     1.5693568      188.78505      107.43137      181.9821       98.120904     -144.0662      -106.68777     -102.0432       41.539221     -57.884868      3690858.2    
     23000   300.09592      0.89452678     0.67518214     1.5697089      188.75744      107.37912      182.00969      156.00853      256.70297      7.600111      -12.019979      64.104625     -32.797522      3689083.1    
     24000   300.08933      0.89450713     0.67651294     1.5710201      188.71563      107.41906      182.13625      27.07233      -116.87515      26.254257     -108.04737     -104.10212      70.509343      3692203.4    
     25000   299.88347      0.89389351     0.6750901      1.5689836      188.79738      107.38587      182.11685     -101.52556      171.95771      45.198394     -160.20009     -38.618385      106.45003      3692267.9    
     26000   299.4151       0.8924974      0.67550098     1.5679984      188.77782      107.45011      182.04482     -115.12814     -243.57322     -343.76923      19.788293     -73.103738     -18.217882      3692633.1    
     27000   300.10857      0.89456449     0.67349259     1.5680571      188.7944       107.4481       182.03932     -62.570269     -130.51253      204.33812     -143.0564      -5.5611319     -87.047925      3692776.8    
     28000   299.74147      0.89347024     0.67372291     1.5671931      188.93716      107.42841      181.95259     -403.74783     -264.08354     -7.7846275     -4.4121244     -11.604839     -67.673574      3693131.6    
     29000   300.3438       0.89526567     0.6756482      1.5709139      188.82096      107.42015      182.07582     -56.436017     -317.623       -7.185837      -122.64447     -138.95158     -0.76490405     3693075.8    
     30000   299.89057      0.89391468     0.67560568     1.5695204      188.69921      107.44223      181.99575     -0.8617418     -113.07893      122.31134      50.607848      1.8049968     -45.638009      3689829.7    
     31000   300.51648      0.89578037     0.67597991     1.5717603      188.82614      107.44871      182.04916      68.678085      113.01878     -181.99538     -74.781588      66.674587      61.311186      3693618.1    
     32000   300.35141      0.89528834     0.67754463     1.572833       188.80913      107.47628      182.12826      209.51883      52.18344      -67.351182     -107.001       -88.417669      77.82012       3695838.4    
     33000   300.47805      0.89566585     0.67672409     1.5723899      188.76386      107.42183      182.07371      223.54168      144.86945      38.852661     -241.51303      126.47992     -51.228568      3691974.1    
     34000   299.96912      0.89414881     0.67638912     1.5705379      188.86485      107.41192      182.13366     -31.660769     -108.36514     -158.40549      50.200632     -109.10349     -182.12018      3694824.7    
     35000   299.95929      0.8941195      0.67571032     1.5698298      188.76744      107.44024      181.9751       625.89357     -14.615035      385.39222     -47.814816      49.026707     -151.39257      3690677      
     36000   300.12728      0.89462025     0.67513106     1.5697513      188.82896      107.42073      182.04626      110.38035     -68.955915     -50.652479      70.331397      167.53236     -162.83553      3692652.8    
     37000   300.46243      0.89561928     0.67632572     1.571945       188.79555      107.42169      182.04232     -548.17926     -285.63437      227.34511      158.84498      119.11065     -78.166694      3691952.4    
     38000   300.23539      0.89494252     0.67562242     1.5705649      188.8664       107.41768      182.07567     -50.356553     -143.48577     -67.901988     -159.24106      145.47606     -82.658134      3693876.7    
     39000   299.73199      0.89344196     0.67621757     1.5696595      188.79242      107.4254       182.16974     -290.59435     -123.77149      2.6837183     -112.29936     -138.22981     -11.373261      3694603      
     40000   300.3579       0.8953077      0.67552932     1.570837       188.78527      107.42386      182.10052      99.386969     -11.244738     -9.967162       72.772954     -20.507645     -43.036789      3693006      
     41000   299.9595       0.89412014     0.67385705     1.5679772      188.85964      107.4338       182.03692      27.793227     -104.47817     -131.02003      178.44244      14.340006     -52.911821      3693512.4    
     42000   300.32709      0.89521585     0.67429892     1.5695148      188.84124      107.42384      182.04747     -327.97072     -336.30198     -0.79314639    -82.636998     -77.985592     -16.866797      3693024.4    
     43000   300.68161      0.89627261     0.6763817      1.5726543      188.75878      107.41731      182.07894      71.510393      127.58557     -310.08869     -211.00879     -140.89398      27.063958      3691825.3    
     44000   300.35783      0.89530749     0.6747936      1.5701011      188.77464      107.40983      182.03073      56.673141     -159.38551     -96.129746     -188.09786     -163.53885     -180.11286      3690901.1    
     45000   300.31553      0.89518138     0.67594865     1.57113        188.826        107.41525      182.03608     -31.79636      -119.48509     -20.611651      1.0151807      55.323773     -25.044133      3692199.9    
     46000   299.90327      0.89395253     0.67564677     1.5695993      188.76601      107.44052      182.15166     -173.47577      217.39248     -159.82256      27.003197      43.477035      102.60708      3694239.5    
     47000   300.00514      0.89425619     0.67478741     1.5690436      188.91572      107.39354      181.99548      19.970092     -137.17415      144.24297      126.60528      5.3625058      53.584258      3692384.1    
     48000   299.7699       0.89355497     0.67368232     1.5672373      188.7927       107.38982      182.02682     -150.1667       503.71086     -73.716405      188.11815     -56.820899     -109.16623      3690487.2    
     49000   299.75487      0.89351018     0.67407276     1.5675829      188.88819      107.43748      182.01262     -377.33865     -4.953266       246.35691      80.171042      76.776439     -80.308009      3693704.2    
     50000   299.71912      0.89340361     0.67789514     1.5712987      188.86393      107.45557      182.12934      188.41732      213.83012      26.299639     -21.579362      62.699079     -65.750985      3696220.4    
     51000   300.29372      0.89511637     0.67547304     1.5705894      188.74346      107.48573      182.11233      62.158739     -162.93011     -76.930472     -27.890827     -50.324073      51.375941      3694554.6    
     52000   300.00455      0.89425442     0.67801606     1.5722705      188.82331      107.44232      182.05507      366.89676      34.620967      128.73367      113.54311      106.22276     -73.480782      3693463      
     53000   300.12275      0.89460676     0.67403281     1.5686396      188.70049      107.42352      182.09414      22.468336     -53.115657     -97.066072     -57.744663     -101.94836     -46.915695      3691206.9    
     54000   300.62136      0.89609302     0.67445573     1.5705488      188.80468      107.39461      182.1212       37.768116      66.270977      17.207397      113.24919     -70.526725      0.78104023     3692799.5    
     55000   299.47215      0.89266745     0.67572434     1.5683918      188.81895      107.39347      182.03936      165.05767      119.64922      13.328096      76.036014     -9.4622885     -177.23179      3691380.1    
     56000   300.0353       0.89434607     0.67101042     1.5653565      188.774        107.37096      181.90629      201.23715     -39.367278      28.432853     -51.59962       128.36588     -164.77793      3687030.3    
     57000   300.19656      0.89482676     0.67513081     1.5699576      188.79105      107.44675      182.10045     -78.276929     -223.46551      31.6026       -104.53518      23.970744     -7.8919148      3693904.9    
     58000   299.77272      0.8935634      0.6734578      1.5670212      188.8629       107.42461      182.08357      170.24374      178.73134      27.672413      115.90939      28.815825     -23.642851      3694206.7    
     59000   300.18579      0.89479467     0.6745729      1.5693676      188.81449      107.40761      182.12707      163.07669      150.34483      36.962155     -279.88087     -86.814141     -21.092802      3693557.3    
     60000   300.55744      0.89590249     0.67417793     1.5700804      188.7794       107.40126      182.04869     -58.531         181.52721      54.072799     -116.72798     -124.43269     -213.2903       3691063.8    
     61000   300.22829      0.89492133     0.67521837     1.5701397      188.90494      107.39653      182.10559     -104.95268      151.65874     -115.58958      29.938295     -55.601018     -42.894108      3694510      
     62000   299.45804      0.89262539     0.67546303     1.5680884      188.82083      107.40964      182.05134     -18.937527     -353.61367     -57.06655      -52.135364      0.4445759      49.734593      3692215.4    
     63000   299.29125      0.89212822     0.67432107     1.5664493      188.7935       107.43807      182.02929      137.05489      10.371253      29.271495     -14.319621      69.186815     -119.04095      3692211.1    
     64000   300.0775       0.89447187     0.67674313     1.571215       188.83655      107.43448      182.16631     -21.972221     -71.175347     -206.84256     -22.516128     -12.018473     -0.70012945     3695709.3    
     65000   299.80999      0.89367447     0.67433374     1.5680082      188.77337      107.39563      182.12895      133.44457     -424.12561     -110.45845     -3.3111626      39.347061     -33.19194       3692379.2    
     66000   299.85697      0.89381453     0.67567726     1.5694918      188.80892      107.38905      182.05437      79.446065      196.45652      89.275838      49.034391     -35.452117      108.65967      3691336.5    
     67000   300.30561      0.89515181     0.67430414     1.569456       188.87136      107.378        182.07627     -46.36629      -57.270084      86.069089      24.286549      31.295741     -66.42293       3692621.1    
     68000   299.47375      0.89267221     0.6750257      1.5676979      188.88006      107.3864       182.05026      171.18016      154.29015      28.220942      255.68959     -59.646483     -155.6719       3692552.7    
     69000   300.44629      0.89557115     0.67662831     1.5721995      188.84841      107.42786      182.07885     -388.6789       7.5900997     -84.591075     -302.62395     -33.026756     -127.32896      3693939.2    
     70000   300.65269      0.8961864      0.67449317     1.5706796      188.8327       107.46356      182.08782      38.215091     -175.66837     -103.51724      92.914936      40.329324     -68.596296      3695041.4    
     71000   300.50269      0.89573929     0.67526464     1.5710039      188.77378      107.42679      182.14705      469.10595      29.250228      32.207111      215.1846       88.931125     -45.436725      3693825.7    
     72000   299.35781      0.89232661     0.67759307     1.5699197      188.7973       107.44254      182.05163     -118.96378     -70.020648      23.41259      -4.6919403      35.525718     -128.84289      3692892.1    
     73000   299.9733       0.89416127     0.67783544     1.5719967      188.84415      107.41191      182.07015      33.800693      57.170802     -75.445397      242.22519      90.83609      -84.500515      3693131      
     74000   300.5118       0.89576643     0.6766332      1.5723996      188.91946      107.39793      182.13475      427.78995      210.431        218.26066     -126.78097      59.629996     -149.47516      3695433.6    
     75000   300.38688      0.89539407     0.676581       1.5719751      188.8413       107.44709      182.09528     -181.80832     -53.695502     -218.3282      -111.02324     -84.034059     -126.82281      3694795      
     76000   299.11212      0.89159427     0.67629876     1.567893       188.81408      107.50457      181.99999      496.5246      -288.9529       123.10082     -29.629368      42.260906     -53.691381      3694304.2    
     77000   299.74761      0.89348852     0.67375725     1.5672458      188.83123      107.39989      182.0889      -56.541271     -72.777134     -14.660327      136.70041     -40.227917      7.9314265      3692845.5    
     78000   299.34807      0.89229758     0.67252504     1.5648226      188.80575      107.41826      182.07975      123.43929     -20.344909      191.68499     -81.887677      33.893836     -42.329869      3692793.1    
     79000   299.80878      0.89367087     0.67606656     1.5697374      188.88256      107.42198      182.16074     -70.486604     -8.1365777     -58.335357      83.00251      -106.65754     -52.697958      3696066.6    
     80000   299.39774      0.89244564     0.67509473     1.5675404      188.78668      107.39231      182.1036       250.43176     -1.6390262      92.388761     -7.47252       -32.635102     -168.09086      3692011.7    
     81000   300.38274      0.89538174     0.6746167      1.5699984      188.70983      107.43975      181.96374      328.08934      9.7038673      0.15591361    -69.527784     -93.877673     -54.027805      3689303.2    
     82000   299.89792      0.89393659     0.67559713     1.5695337      188.70771      107.43376      182.05079     -175.12064     -342.68967     -119.40333     -77.729367     -122.48594     -137.75872      3690820.9    
     83000   300.02467      0.89431441     0.67735381     1.5716682      188.81517      107.43528      182.17583      288.44271     -91.503773     -24.47927      -8.374706       141.80231     -57.800521      3695511.6    
     84000   299.66192      0.8932331      0.67594253     1.5691756      188.85722      107.42522      182.07753      83.237149      281.22453     -75.310151     -20.452013     -143.94194     -114.31185      3693994.2    
     85000   300.23964      0.89495518     0.67592541     1.5708806      188.9533       107.38834      182.09278      15.365569     -113.04015      124.64048     -202.96314      74.125345      15.141761      3694914      
     86000   299.82034      0.89370534     0.6765135      1.5702188      188.76745      107.40312      182.08514      287.578        83.980127      208.9474       58.861438      15.761435     -207.83825      3691633.1    
     87000   300.67531      0.89625383     0.67699779     1.5732516      188.79272      107.42289      182.19321      35.175633     -6.4601412      3.0494674     -93.166187     -101.52204      87.392293      3694998.6    
     88000   299.87729      0.89387507     0.67611431     1.5699894      188.86548      107.4533       182.12055     -64.61802      -142.15438     -82.734172      158.49384     -242.60621     -22.434764      3695994.5    
     89000   299.04145      0.89138362     0.67544043     1.566824       188.80255      107.45903      182.09421      186.39755     -247.92882     -53.847299      47.547441     -113.52325      100.93291      3694425.4    
     90000   299.86287      0.8938321      0.67439868     1.5682308      188.7354       107.41095      182.06206     -3.8240324      177.9307      -52.792408     -265.6063      -142.35419     -87.221266      3690807.4    
     91000   299.47361      0.89267178     0.67586638     1.5685382      188.87724      107.41803      182.06917      10.990137      111.64232      40.861937     -10.663733      7.1461483     -164.38145      3693969      
     92000   300.53252      0.8958282      0.67860613     1.5744343      188.87102      107.39288      182.23791     -231.38866     -28.596612     -228.71507     -40.061924      61.723473     -55.144209      3696404.9    
     93000   299.99752      0.89423345     0.67627231     1.5705058      188.79528      107.41242      182.05118      100.25794     -84.394295      23.234558     -241.73487     -52.427015     -20.290932      3691808.2    
     94000   300.55718      0.89590171     0.67535748     1.5712592      188.83005      107.41798      182.07135     -185.73816     -128.26636     -37.712294      43.851865     -8.8581673     -153.38826      3693088.5    
     95000   299.98186      0.8941868      0.67511996     1.5693068      188.77322      107.41274      182.18377     -73.483356     -153.36701     -327.36437      71.691787     -128.68517     -19.561095      3694076.3    
     96000   300.07785      0.89447291     0.67638318     1.5708561      188.85188      107.40477      182.07196      236.58049      111.29406     -119.60759      19.6786       -13.549936     -78.070622      3693073.3    
     97000   299.67857      0.89328274     0.67618293     1.5694657      188.80569      107.42291      181.94641     -251.98752     -272.69392      181.78947     -123.40074      70.76767      -40.17925       3690247.7    
     98000   299.65197      0.89320344     0.67861645     1.5718199      188.84069      107.39549      182.14512     -41.355635      119.79147      82.713609      2.6547931     -12.021493     -31.647585      3694019.4    
     99000   300.04225      0.89436681     0.67506119     1.569428       188.87274      107.40247      182.13941     -158.63648      324.36747     -98.241492     -77.947553      37.330176     -196.69988      3694770.4    
    100000   300.12309      0.89460777     0.6763769      1.5709847      188.90964      107.38787      182.08532     -103.9743      -7.2721947     -27.253486      17.761649      60.42225      -236.2756       3693892.7    
    101000   300.83473      0.89672902     0.67540072     1.5721297      188.84741      107.42209      182.17938      18.36016       163.0636      -94.427247      67.860508      29.267795     -22.792109      3695760.6    
    102000   299.89417      0.89392539     0.67512643     1.5690518      188.88497      107.42052      182.10097     -157.77383     -77.410746     -107.94002     -134.03681     -128.40992     -142.33738      3694850.8    
    103000   299.77371      0.89356633     0.67571419     1.5692805      188.93877      107.44574      182.1191       330.55181      163.06379      52.54887      -0.56528952     2.3779912     -66.231191      3697139.1    
    104000   299.97189      0.89415708     0.67667352     1.5708306      188.87041      107.44753      182.13746     -254.9651       79.990287     -57.942174     -146.49334     -68.521484     -120.75998      3696235.5    
    105000   299.56028      0.89293015     0.67296531     1.5658955      188.79459      107.4201       182.09864      39.089379      415.20545      100.29087      101.35794      64.702722     -163.33031      3693021.5    
    106000   299.86487      0.89383805     0.67638667     1.5702247      188.8567       107.44066      182.068       -48.880652     -173.79967      66.453693      8.401108       126.77898     -60.211724      3694321.3    
    107000   299.92315      0.89401177     0.67566156     1.5696733      188.8672       107.44432      182.13964     -104.62264     -91.028233      188.09842      54.144855     -73.201096     -244.90255      3696106.5    
    108000   300.28673      0.89509553     0.67594493     1.5710405      188.83487      107.41559      182.09229     -102.89828     -106.31028     -175.65847      257.60466      19.800258     -100.94935      3693525.3    
    109000   300.21028      0.89486767     0.67554223     1.5704099      188.85469      107.38444      182.17669      50.394353      179.53857      94.497037      139.07667      25.824417     -94.72417       3694553.3    
    110000   299.12676      0.89163789     0.67733593     1.5689738      188.79032      107.41072      182.13286      161.5923      -117.58129      12.515837     -107.69945     -25.481143     -75.670418      3693309      
    111000   300.36478      0.8953282      0.67525411     1.5705823      188.76465      107.39458      182.10622      240.85977      85.656121     -11.640158     -157.413        21.548922     -202.75636      3691712.1    
    112000   299.7861       0.89360327     0.67507006     1.5686733      188.8046       107.44207      182.15028      46.945254     -88.125002      38.800121     -0.79184706    -41.808377     -39.282881      3695020      
    113000   299.32893      0.89224054     0.67754557     1.5697861      188.78744      107.414        182.11352     -371.53335     -107.90478      6.8839464      105.47806     -85.467632     -147.92648      3692973.2    
    114000   299.817        0.89369536     0.67396647     1.5676618      188.82926      107.43267      182.05785     -52.490682     -46.691518     -128.14366      171.86408     -91.468658     -128.27274      3693304.4    
    115000   299.98668      0.89420114     0.67461263     1.5688138      188.92312      107.38523      182.08757      134.21832      98.402513      135.65334      94.068101     -30.378607     -82.692772      3694111.1    
    116000   300.36591      0.89533156     0.67474173     1.5700733      188.85031      107.36863      182.17073     -201.81578     -245.52821     -272.11848      108.35216     -57.901367     -75.56451       3693802.7    
    117000   299.89879      0.89393916     0.67717922     1.5711184      188.85758      107.4148       182.13528      24.259176      209.80646      151.14371      30.816102     -100.44835     -195.16549      3694814.3    
    118000   300.2104       0.89486801     0.67763724     1.5725052      188.78927      107.40269      182.30272      106.99152     -239.65823     -97.51897       81.216238      87.282012     -180.20374      3696456.5    
    119000   299.86726      0.89384519     0.67476717     1.5686124      188.76643      107.41111      182.10246      53.203213      116.58441     -26.433554      310.06345      30.986437     -109.91378      3692238.9    
    120000   299.34416      0.89228593     0.67468042     1.5669664      188.85492      107.416        182.08685     -401.43202      62.050106      290.87515     -131.02221      91.745218     -35.628206      3693821      
    121000   300.28981      0.89510471     0.67659914     1.5717039      188.83834      107.403        182.12165      81.705826      120.56844     -37.221303     -65.23923       40.061764     -89.231557      3693755.6    
    122000   299.13846      0.89167278     0.67714687     1.5688196      188.84492      107.39796      182.25914      234.06597      292.77405     -62.855208     -12.47919       5.3644105     -107.90167      3696499.7    
    123000   300.31849      0.89519023     0.6759362      1.5711264      188.90511      107.46174      182.12946     -117.40821     -251.01452      27.255077     -98.577352     -37.556605     -81.527547      3697241.1    
    124000   300.10684      0.89455932     0.67585436     1.5704137      188.8484       107.45394      182.03821     -268.7196      -238.26856     -145.64231     -52.137841     -55.785332     -98.113736      3694011.2    
    125000   299.66558      0.89324403     0.67850426     1.5717483      188.74754      107.47189      182.09572     -8.4674741     -226.06923      94.155055     -26.946814     -32.681311     -150.86539      3693821.6    
    126000   299.73133      0.89344002     0.67718541     1.5706254      188.81174      107.43525      182.13151     -47.707685      12.594252     -97.39948       182.43255     -12.391964     -177.9734       3694544.4    
    127000   299.53798      0.89286365     0.67461367     1.5674773      188.83793      107.37781      182.15463     -91.041794     -73.17964      -82.426659     -69.196379     -107.41059     -157.14158      3693550      
    128000   300.56371      0.89592118     0.67753101     1.5734522      188.7329       107.35033      182.19795      186.98543      137.45567     -276.24037      175.28999      8.1870381     -166.69454      3691428.8    
    129000   299.51966      0.89280907     0.67741361     1.5702227      188.81743      107.38473      182.26269     -382.84175      58.395081     -19.602959      50.882222     -104.77395     -122.10355      3695578.1    
    130000   299.99136      0.89421511     0.6761863      1.5704014      188.81576      107.41197      182.14553     -318.98462     -195.6588      -78.306794     -31.119367      85.606712     -152.92865      3694106.9    
    131000   300.24946      0.89498446     0.67365793     1.5686424      188.85113      107.3979       182.11108     -200.54125      300.32878     -84.630039      118.37423      1.2427869     -95.500922      3693616      
    132000   300.45631      0.89560103     0.67653289     1.5721339      188.83188      107.41875      182.10555     -311.56706      80.103319      101.73375      122.34179     -2.115077      -175.11125      3693844.4    
    133000   299.86342      0.89383375     0.67649415     1.5703279      188.89077      107.37886      182.06937      329.59585      315.4959       213.29631     -80.193725     -175.2347      -145.82864      3692890.2    
    134000   300.28161      0.89508027     0.67639683     1.5714771      188.87569      107.41447      182.12518      197.66919      273.57653      175.3132      -63.894848     -0.87834848    -39.061633      3694952.6    
    135000   299.80984      0.89367402     0.6754861      1.5691601      188.79231      107.38048      182.12835      324.73337      402.72108      92.211974      202.76456      76.567034     -129.056        3692216.9    
    136000   300.32995      0.89522437     0.67597058     1.5711949      188.82352      107.41824      182.00855     -244.65043     -106.16327     -153.71136     -236.24305     -20.202528     -164.34108      3691695.6    
    137000   299.435        0.89255671     0.67677634     1.569333       188.86547      107.3902       182.09688      216.32687      234.25863      76.568478      46.355162     -77.146032     -147.8522       3693343.7    
    138000   300.55031      0.89588122     0.67587099     1.5717522      188.80018      107.40717      182.06693      68.896395      165.93901      380.29396      22.25957      -86.864579     -164.06433      3692043.2    
    139000   299.82623      0.89372288     0.67678869     1.5705116      188.89352      107.37673      182.30269      67.554513     -151.76589     -29.836057     -64.010385      128.63712     -181.01326      3697603.2    
    140000   299.56599      0.89294715     0.6773669      1.5703141      188.90297      107.38321      182.21337     -9.6039502     -179.94743     -39.103583      50.454998     -19.675602     -54.674545      3696199.3    
    141000   300.08671      0.89449933     0.67673196     1.5712313      188.9003       107.42303      182.03345      143.74595      148.93142      113.58954      189.08312     -13.919706     -195.09183      3693866.7    
    142000   300.16929      0.89474547     0.67555989     1.5703054      188.75818      107.41841      182.16969     -37.406504     -83.776803      90.501864     -18.152915     -52.797494     -246.67291      3693691.5    
    143000   301.23718      0.89792865     0.67546347     1.5733921      188.80591      107.4001       182.15724     -103.23273     -95.868694      134.17525      3.6914447      7.4364878     -200.35889      3693743.1    
    144000   299.77452      0.89356874     0.67535811     1.5689269      188.79145      107.38334      182.2077       14.551765      32.242982     -274.49127     -154.74502     -12.052052     -217.40233      3693907.2    
    145000   299.60057      0.89305024     0.6786405      1.5716907      188.85984      107.39494      182.28998      51.899386      233.92131      81.488543     -33.07095      -48.250328     -245.92542      3697313.1    
    146000   300.14638      0.89467718     0.67596258     1.5706398      188.94091      107.3952       182.14464     -11.818201     -237.20847      32.578362      189.49925     -53.329348      59.651505      3695960.2    
    147000   300.50826      0.89575589     0.67588982     1.5716457      188.84579      107.41152      182.03215     -324.05693      183.34781      52.060333      8.8994288      57.299518     -134.99039      3692379      
    148000   300.79662      0.89661544     0.67590872     1.5725242      188.79144      107.37998      182.19763      242.40818      82.026925      96.390712     -23.252012     -122.01109     -255.54973      3693587      
    149000   300.1892       0.89480484     0.67587871     1.5706835      188.82638      107.36278      182.14428     -166.86038     -149.38155     -106.42449     -230.03059     -93.17855      -166.78192      3692597.3    
    150000   300.55659      0.89589995     0.6757903      1.5716903      188.9244       107.38569      182.15069      94.115905      113.43978      232.21602      189.79746     -101.58227     -57.097209      3695432.6    
    151000   299.86783      0.89384688     0.67770992     1.5715568      188.80945      107.42892      182.27435     -64.22398       85.775935      131.68794     -109.02005      122.03467     -13.674057      3697178.9    
    152000   300.14913      0.8946854      0.67719436     1.5718798      188.87799      107.37845      182.29071      15.74569      -150.74329     -304.41908     -38.255879     -115.58945     -138.3326       3697115.5    
    153000   300.35922      0.89531162     0.67526857     1.5705802      188.922        107.39241      182.14923      184.33506      48.990129      329.62422      45.453668     -74.75635      -16.683281      3695587.3    
    154000   300.1995       0.89483552     0.67809997     1.5729355      188.96698      107.41305      182.31055      278.25609     -451.13247     -327.00807     -18.528273     -81.603847     -82.049986      3700452      
    155000   300.55113      0.89588366     0.67669865     1.5725823      188.78809      107.44764      182.24954     -56.347139     -333.25626      153.64109     -30.912767     -109.9452      -99.463757      3696901.8    
    156000   300.12822      0.89462307     0.67765378     1.5722769      188.83631      107.44726      182.19063     -96.329518     -236.56741     -86.572779     -104.74837     -42.654842     -25.519545      3696637.6    
    157000   300.03462      0.89434405     0.67811463     1.5724587      188.74843      107.43859      182.18825      11.157715     -12.315781      57.322101     -96.841194     -139.27787      36.092245      3694570.9    
    158000   299.95978      0.89412098     0.67683085     1.5709518      188.88182      107.40748      182.14731     -199.16447     -118.21959      75.117155     -60.43084       29.314212     -251.31294      3695281      
    159000   299.50828      0.89277514     0.67621054     1.5689857      188.89568      107.39679      182.22307     -58.122347      203.43522     -6.142896       84.095351     -1.4304793     -174.10039      3696721      
    160000   299.76484      0.89353989     0.67660481     1.5701447      188.8833       107.42325      182.2205       211.14061     -177.37703      0.64918444    -137.23771      106.71026     -297.21221      3697337.6    
    161000   300.0281       0.89432462     0.6766764      1.571001       188.87543      107.43514      182.1973      -178.20899     -185.39492      133.00805     -114.45282     -76.665229     -125.28675      3697121.7    
    162000   299.44209      0.89257785     0.67623235     1.5688102      188.87318      107.38803      182.19442      256.66504     -31.684708      134.72461     -40.121665     -243.8082      -319.16844      3695398.3    
    163000   299.81419      0.893687       0.67496118     1.5686482      188.92209      107.36702      182.06178     -260.40043      172.4671       53.888942     -100.81221     -111.48475     -289.48927      3692941.5    
    164000   300.52666      0.89581072     0.67643935     1.5722501      188.85081      107.36778      182.22917      291.91567     -118.63754     -106.15812      19.002542     -6.7003153     -95.513884      3694968.4    
    165000   300.09862      0.89453484     0.67636752     1.5709024      188.832        107.37971      182.24313     -42.899241      163.41941      40.909         24.612231     -8.3245528     -48.030007      3695293.8    
    166000   299.7683       0.89355022     0.67740654     1.5709568      188.86248      107.40333      182.16821     -168.57417      17.27589      -29.941218     -14.915847     -73.625154     -167.4648       3695183.6    
    167000   300.98156      0.8971667      0.67711906     1.5742858      188.80554      107.37052      182.20682     -5.8350137     -82.158065      64.399383     -60.487171      91.494376     -71.552846      3693724      
    168000   299.8266       0.89372399     0.67658611     1.5703101      189.02986      107.38741      182.13112     -101.65149     -168.38907      253.28259     -54.80474      -34.202872     -170.64929      3697157.5    
    169000   300.1661       0.89473596     0.67689799     1.571634       188.88091      107.43096      182.22717     -50.957122     -271.28858     -213.78053     -64.715867      1.4260898     -110.50823      3697691.4    
    170000   300.4907       0.89570353     0.6737622      1.5694657      188.75982      107.41111      182.13802      154.78991     -181.64502     -128.25345      83.028116      100.2723      -278.5126       3692830.5    
    171000   300.02842      0.89432558     0.67478538     1.569111       188.83908      107.36178      182.26979      95.846284      245.86302     -63.878289     -12.60938      -0.81886421    -206.87505      3695355.8    
    172000   300.40166      0.89543813     0.67605866     1.5714968      188.81026      107.37369      182.23195     -183.94942     -171.46872     -121.94683     -57.522084     -73.291134     -132.9624       3694434.7    
    173000   300.56581      0.89592743     0.67746724     1.5733947      188.80349      107.35099      182.27856     -243.51515      220.97539     -214.90948      73.712143     -113.55023     -65.236537      3694465.8    
    174000   299.70789      0.89337015     0.67563045     1.5690006      188.91066      107.37164      182.2411      -29.180823     -364.18387      93.008396      185.52949      10.188623     -131.64303      3696514.3    
    175000   300.37247      0.89535111     0.67410804     1.5694591      188.86844      107.35874      182.23427     -75.479448      96.548907     -85.853512     -193.68354     -91.304744     -172.32318      3695105.7    
    176000   299.64236      0.89317479     0.67519342     1.5683682      188.8984       107.38913      182.17192      125.04759      298.1915       177.29406     -16.056576      22.214556     -106.08197      3695473.1    
    177000   300.07448      0.89446287     0.675234       1.5696969      188.82672      107.41981      182.23748     -69.429362      256.22309      126.34788     -29.08072      -59.747148     -299.64986      3696455.9    
    178000   299.9863       0.89420003     0.67782746     1.5720275      188.9751       107.3874       182.27573      258.40811      292.60055      17.895301      27.846265     -134.99834     -160.32548      3699020.9    
    179000   299.65186      0.89320312     0.67713599     1.5703391      188.84023      107.39346      182.33179      199.54775      167.23406      105.00392     -135.36753     -75.885198     -179.32143      3697725.9    
    180000   299.18528      0.89181234     0.67706448     1.5688768      188.88146      107.39137      182.21211     -2.1861384     -22.586845      17.794696      83.810203     -27.263072     -57.853507      3696033.9    
    181000   300.09819      0.89453353     0.6781082      1.5726417      189.05727      107.39688      182.27179     -193.09119     -151.779        231.64258      83.347463     -147.10449     -97.972611      3700875.7    
    182000   300.16514      0.89473311     0.67884829     1.5735814      188.80578      107.40071      182.3252      -209.49506      33.821146      73.447731     -143.67058     -55.421813     -207.34435      3697167.7    
    183000   300.06549      0.89443606     0.67582558     1.5702616      188.83604      107.39589      182.16284     -134.2583      -138.42143     -51.33667      -3.3345447     -108.80596     -227.61923      3694301.4    
    184000   299.56208      0.89293551     0.67691635     1.5698519      188.83995      107.37539      182.15492      198.10793      8.9585833      166.23426     -242.49049     -209.41225     -157.91357      3693512.4    
    185000   299.84615      0.89378227     0.6766764      1.5704587      188.85906      107.42801      182.28533     -228.77031     -23.788542     -188.85313      74.322774     -128.94817     -141.31536      3698342.1    
    186000   300.66263      0.89621604     0.67730404     1.5735201      188.869        107.38484      182.18213      74.110332      91.94188       35.846184     -69.880952     -104.90755     -233.61871      3694957.5    
    187000   300.08794      0.89450298     0.67540571     1.5699087      188.82855      107.36256      182.20593     -55.47237       281.34264      29.880202      11.383334     -104.69224     -302.18659      3693882.1    
    188000   300.43414      0.89553495     0.67536703     1.570902       188.91462      107.36468      182.262       -37.647969      56.276279      82.967562      107.16873     -165.84215     -195.54137      3696776.2    
    189000   299.31185      0.89218963     0.67614522     1.5683348      188.77638      107.35591      182.19724      119.49884      282.56534      141.38836      153.16269     -113.41474     -253.04465      3692456.6    
    190000   300.65566      0.89619524     0.67682606     1.5730213      188.83697      107.3731       182.3892       380.71041      50.610716      27.351196      158.59678     -64.674799     -92.420223      3698125.3    
    191000   299.73449      0.89344941     0.67687009     1.5703195      188.9577       107.37096      182.21361     -138.99876     -119.55817     -122.81218      68.649757     -83.39168      -195.06772      3696853.5    
    192000   300.00177      0.89424613     0.67611017     1.5703563      188.90152      107.33663      182.26111      80.229516     -45.086456      45.193768     -95.017214     -68.075272     -199.39794      3695535.9    
    193000   299.6361       0.89315613     0.67698807     1.5701442      188.85827      107.39393      182.1787      -157.59668      53.699943      206.78735     -379.56838     -1.5436295     -223.59987      3694990.5    
    194000   300.71452      0.89637069     0.67607431     1.572445       188.84733      107.3957       182.12222      200.8948      -29.809947      102.53467     -115.32984     -52.586533     -258.3353       3693691.9    
    195000   299.62928      0.8931358      0.67597563     1.5691114      188.80254      107.37269      182.17914      37.860221     -148.47856     -83.200987      201.87443     -70.61508      -161.97645      3693178.4    
    196000   299.56         0.89292931     0.67757727     1.5705066      188.91311      107.38149      182.28206     -318.30941     -188.14356     -113.13859     -146.0211      -103.23064     -146.46362      3697732.1    
    197000   300.01581      0.894288       0.67776699     1.572055       188.88582      107.41098      182.28438     -150.6642       222.6787       6.5792822      123.42816     -63.041035     -170.98664      3698260.3    
    198000   300.77419      0.89654857     0.67678316     1.5733317      188.81436      107.41759      182.25303      17.575043     -30.824768     -26.295254     -172.70062     -51.6516       -319.40263      3696453.1    
    199000   299.67373      0.89326831     0.67703389     1.5703022      188.74821      107.41386      182.24958      92.864476     -110.7851       97.039509      0.38330891     65.755586     -63.40465       3694959.5    
    200000   299.96882      0.8941479      0.67499315     1.5691411      188.78799      107.41512      182.2885      -25.35327      -165.93914     -136.29255      0.50176357    -145.13021     -116.95047      3696571      
    201000   299.97169      0.89415647     0.67597408     1.5701305      188.81497      107.38864      182.15068     -81.977419     -179.2702       128.60917      71.157696     -140.34801     -70.764578      3693393.3    
    202000   299.66368      0.89323835     0.67469848     1.5679368      188.76264      107.32993      182.34453      169.45388     -326.23383     -190.85737     -206.64474     -28.76005      -178.76036      3694278.6    
    203000   299.68714      0.89330828     0.67648529     1.5697936      188.84588      107.3985       182.30937     -320.75274      85.656977      109.74495      72.480985     -146.79274     -213.15474      3697555.8    
    204000   299.90132      0.89394672     0.67651354     1.5704603      188.86897      107.37537      182.30468     -183.23347     -207.15023      155.30794     -108.78436     -25.547109     -217.68625      3697116.3    
    205000   300.59022      0.8960002      0.67459432     1.5705945      188.86636      107.37597      182.23901     -123.59431      40.075963     -104.95601     -172.98005     -20.298456     -100.2781       3695753.9    
    206000   300.14744      0.89468034     0.67647064     1.571151       188.89945      107.35466      182.28452     -69.256841      42.485131     -21.579238     -8.845816      -42.520618     -143.9574       3696590.9    
    207000   299.57147      0.89296349     0.67743584     1.5703993      188.8841       107.36927      182.22486      164.885        64.162159      12.466346      33.904632      50.276541     -83.359461      3695583.4    
    208000   300.43745      0.8955448      0.67694205     1.5724869      188.85423      107.40205      182.23914     -68.838058     -23.183468      118.39787     -52.930492     -2.2728858     -131.4791       3696416.9    
    209000   299.74147      0.89347023     0.67532579     1.568796       188.80848      107.39352      182.17744      79.538235     -205.51838     -45.300236     -129.93815     -85.275185     -224.98369      3693976.9    
    210000   300.15312      0.89469728     0.6798649      1.5745622      188.94607      107.37231      182.24042      56.554604     -167.30388      65.390218      26.922946     -37.860838     -154.50524      3697216.5    
    211000   299.81691      0.8936951      0.68033292     1.574028       188.83109      107.35786      182.26376     -146.41862      166.60023      83.848548      46.659372     -70.494419     -81.997187      3694942.2    
    212000   300.2978       0.89512855     0.67531296     1.5704415      188.84076      107.40088      182.20922      88.242818      139.68582     -55.945405     -125.31789      109.99152     -230.49334      3695506.3    
    213000   299.56597      0.89294709     0.67831739     1.5712645      188.901        107.3297       182.31754      26.617881      304.13167      59.107332      145.80515     -130.26175     -249.11504      3696431.1    
    214000   300.36535      0.89532991     0.67651583     1.5718457      188.97108      107.37926      182.32744      268.37248     -22.749828      69.843659      1.7130061     -55.735846     -219.52263      3699710.9    
    215000   299.60921      0.89307598     0.67922356     1.5722995      188.78163      107.39694      182.27569     -133.17504     -295.65839     -11.031149      63.595144      38.041408     -346.52091      3695561.1    
    216000   299.66878      0.89325356     0.67585551     1.5691091      188.7554       107.38976      182.19444      24.741987     -94.117962      81.849726     -47.331375     -130.14271     -199.08         3693153.7    
    217000   300.20081      0.89483944     0.67818911     1.5730286      188.94796      107.36361      182.26775      332.46499     -112.34982      208.2757       207.19759     -55.339482     -196.7784       3697508.3    
    218000   299.9794       0.89417945     0.67771252     1.571892       188.9982       107.41516      182.26527     -369.28709     -51.809085     -19.016695      128.625       -1.8774194     -146.86551      3700216.9    
    219000   300.38653      0.89539304     0.67692388     1.5723169      188.83325      107.38527      182.28541      112.0764      -362.67462      98.927472     -162.31058     -139.96393     -217.3005       3696366.9    
    220000   300.07092      0.89445224     0.67873945     1.5731917      188.79963      107.31751      182.26762      99.9827        142.02806      129.02014      118.0957      -71.558956     -150.68849      3693016.6    
    221000   300.14286      0.8946667      0.67701147     1.5716782      188.87356      107.36646      182.36326     -287.78997     -17.923298     -65.446898      33.82219      -51.502949     -263.64196      3698087.3    
    222000   300.66972      0.89623716     0.67727345     1.5735106      188.93548      107.36164      182.36169     -256.16373     -194.93968      69.738981      104.40189     -165.12753     -138.41548      3699101.6    
    223000   300.2722       0.89505222     0.67846945     1.5735217      188.95469      107.34138      182.36237      186.23941      141.5496       96.648139     -4.2056205     -182.16767     -230.77399      3698793.3    
    224000   299.78414      0.89359743     0.67728627     1.5708837      188.96145      107.37486      182.38622      95.572451      106.21927      156.78011      82.76624       73.780332     -316.02633      3700563.4    
    225000   300.95399      0.89708453     0.67832023     1.5754048      188.78305      107.38662      182.34737     -150.14495     -108.35988     -21.144504      124.19711      30.551283     -132.87393      3696686.9    
    226000   300.26896      0.89504258     0.67516048     1.5702031      188.88166      107.3685       182.27049     -166.9484       225.42626      266.51922     -4.5868487     -59.985508     -116.96277      3696434.6    
    227000   300.26744      0.89503806     0.67695039     1.5719884      188.8814       107.38863      182.35858      74.544793     -335.45991      83.48774       143.31127     -102.32587     -333.8333       3698909.5    
    228000   299.81824      0.89369906     0.6763379      1.570037       188.89841      107.35027      182.30706     -171.84202     -103.26987     -98.957057      95.800671     -164.41188     -97.336194      3696876.4    
    229000   299.74921      0.8934933      0.67586267     1.569356       188.89492      107.38341      182.36481      76.613664      132.00562     -7.6843784     -43.328754     -4.5097286     -160.67812      3699120.8    
    230000   299.69355      0.89332738     0.67554859     1.568876       188.93614      107.40613      182.32065      179.93941      281.99586      28.48423       11.399396      58.510208     -226.79593      3699814.5    
    231000   300.30265      0.89514298     0.67857341     1.5737164      188.88559      107.39647      182.16554      146.1418       145.7288       112.35726     -112.46039     -87.912021     -248.52424      3695345.7    
    232000   300.28007      0.89507571     0.67856391     1.5736396      188.88835      107.38578      182.39857      196.60894      136.57858      222.35956     -40.372967     -158.90195     -254.38169      3699758.6    
    233000   300.0214       0.89430464     0.67746291     1.5717676      188.86299      107.36949      182.3239       174.56636      185.70407      124.82338      91.420035     -11.520716     -161.06616      3697186.5    
    234000   300.7591       0.89650359     0.67848191     1.5749855      188.94506      107.35561      182.25505     -252.60524     -110.65061      110.63661      54.035354     -91.850797     -208.21007      3696918.2    
    235000   299.58588      0.89300646     0.67940348     1.5724099      189.01304      107.3547       182.42032     -24.193609     -67.785038     -37.657436     -207.36358     -8.7060314     -58.540492      3701570.7    
    236000   299.87894      0.89387999     0.6768499      1.5707299      188.93336      107.376        182.36983      83.424303      74.823095      161.74527     -95.031934     -226.89233     -310.65354      3699719.9    
    237000   300.07505      0.89446457     0.6779814      1.572446       188.74758      107.38507      182.26426     -23.567306     -110.93567     -48.778688      174.51777     -30.311213     -104.456        3694254.5    
    238000   299.52961      0.89283873     0.67769165     1.5705304      188.79484      107.40665      182.3795      -121.65497      313.77732     -102.66963     -6.9775056     -20.738115     -199.35887      3698259      
    239000   299.7074       0.89336869     0.67638944     1.5697581      188.92125      107.36229      182.26636      120.49138     -143.68366     -259.77513     -94.975423     -52.368868     -230.34122      3696912.1    
    240000   299.5197       0.89280919     0.67647665     1.5692858      188.86642      107.30971      182.41045      18.165021     -170.30891     -150.64383      84.630073      45.210341     -144.98586      3696949.2    
    241000   300.52448      0.89580422     0.67834499     1.5741492      188.92511      107.34204      182.30907      190.27826      432.21336     -1.6892669     -149.62038     -190.43551     -167.31605      3697156.5    
    242000   299.69421      0.89332935     0.6774004      1.5707297      188.83654      107.3893       182.33777      129.31751     -300.58889     -107.74929      41.888181     -203.30098     -231.48451      3697632      
    243000   300.31767      0.89518776     0.67707504     1.5722628      188.81859      107.37348      182.3756       531.90913      144.53121     -24.660962      227.57466     -44.588223     -150.06231      3697502.9    
    244000   299.96693      0.89414229     0.67951807     1.5736604      188.97297      107.35421      182.35028     -57.594162     -9.7718416      28.441216     -69.681213     -30.087575     -234.94543      3699348.2    
    245000   299.74543      0.89348203     0.67996192     1.573444       189.05245      107.38911      182.47544     -185.35709     -55.340731      116.54236      122.64935     -75.781633     -246.6252       3704648.2    
    246000   300.63098      0.8961217      0.67888368     1.5750054      188.90565      107.38807      182.43282      91.463056     -150.58189      10.01948       72.22608      -97.917978     -231.07285      3700870.9    
    247000   299.50425      0.89276312     0.67823499     1.5709981      188.87045      107.33912      182.40313     -87.294862     -41.660778     -90.541758      33.952307     -188.40083     -189.37446      3697892.8    
    248000   299.83866      0.89375994     0.67602372     1.5697837      188.72527      107.37805      182.22934      351.5869       11.007857      24.952839      58.940512     -43.250524     -258.4715       3692868.8    
    249000   299.7925       0.89362233     0.67876119     1.5723835      188.88417      107.37992      182.32885     -140.95979     -241.78266     -144.03917     -107.46852     -25.445525     -206.1104       3698060.7    
    250000   300.76102      0.8965093      0.67963977     1.5761491      188.99256      107.43754      182.47246     -322.17877     -64.576121     -170.75947     -148.36862     -11.354255     -206.66871      3705084.2    
    251000   300.35746      0.89530637     0.67746809     1.5727745      188.86502      107.39513      182.41311     -3.6445469     -123.73753     -160.17716     -65.078388     -215.39168     -280.96886      3699918.4    
    252000   299.28545      0.89211093     0.67556542     1.5676763      188.9775       107.39591      182.34476     -94.785823     -332.98241      89.55684       76.426291     -124.51088     -170.37784      3700761.8    
    253000   300.35741      0.89530623     0.67812503     1.5734313      188.99447      107.35015      182.42362      485.79434      227.55109      55.739026     -30.092578     -63.602274     -326.27218      3701117      
    254000   300.60888      0.8960558      0.67588183     1.5719376      188.90848      107.34579      182.30194      17.953658      124.98968      55.82334       13.285313     -44.092247     -293.34467      3696815.5    
    255000   299.81718      0.89369591     0.67694273     1.5706386      188.84778      107.36642      182.32307      199.66298      80.196887     -105.95519      76.787166     -142.16925     -190.05511      3696766.1    
    256000   299.79991      0.89364444     0.6783109      1.5719553      188.92663      107.39183      182.45226     -113.99452      31.956419      105.31112      49.873533     -23.973722     -392.38856      3701806      
    257000   299.78302      0.89359409     0.67606872     1.5696628      188.91885      107.38397      182.41215     -16.663044     -405.24702      37.883448     -190.90526     -95.515266     -231.57736      3700569.2    
    258000   299.5339       0.8928515      0.6759501      1.5688016      188.97094      107.32933      182.39662     -181.30084     -12.128541      39.890821     -25.455031     -311.60157     -155.84473      3699390.9    
    259000   300.47862      0.89566753     0.67792068     1.5735882      188.9306       107.35165      182.41415      140.52312      27.307605     -248.30573     -78.283608     -206.45451     -243.7609       3699726.1    
    260000   300.32407      0.89520686     0.67897301     1.5741799      188.91886      107.39796      182.37854     -252.00937      114.55241     -21.571783     -94.223332     -206.09654     -135.37041      3700369.3    
    261000   300.23735      0.89494834     0.67722008     1.5721684      188.93318      107.40314      182.35029     -166.53507     -90.051152      20.93712       229.18603     -14.559384     -279.86754      3700255.1    
    262000   300.64119      0.89615211     0.67653057     1.5726827      188.94885      107.3839       182.33085     -263.667       -101.95228     -42.066044     -29.858057     -91.908106     -229.31776      3699504.8    
    263000   300.21545      0.89488307     0.6782063      1.5730894      188.81         107.36929      182.41908     -26.681813     -55.03559       26.027374     -45.974689     -91.56519      -265.18243      3698071.7    
    264000   300.0984       0.89453417     0.67964968     1.5741838      188.93866      107.3903       182.37898      109.25089      194.56105     -258.63735      31.983803     -204.02371     -314.19673      3700502.1    
    265000   300.31625      0.89518353     0.67665051     1.571834       188.94319      107.39361      182.43122      21.994929     -90.884622      103.36496     -74.370884     -91.365876     -186.55359      3701765.1    
    266000   300.00906      0.89426787     0.67891061     1.5731785      188.97022      107.36608      182.39433     -249.07016      67.744272     -41.019271     -70.516746      7.3134429     -80.595674      3700596.9    
    267000   299.84869      0.89378984     0.67812109     1.5719109      189.02849      107.34836      182.30307      144.21365      81.167215      7.9291093     -122.58623     -100.66565     -158.86142      3699275.4    
    268000   300.13687      0.89464884     0.67853466     1.5731835      188.86313      107.35864      182.45448      252.94258     -302.0151       1.3649933     -256.96936     -137.51387     -343.40824      3699463.3    
    269000   299.87538      0.8938694      0.67678195     1.5706514      188.85804      107.31649      182.40637     -31.419509     -19.934419      105.9584      -4.8272405     -121.06861     -126.42002      3696936.2    
    270000   299.98222      0.89418786     0.67745714     1.571645       188.98696      107.34275      182.37201      146.71978     -87.324634     -109.97873     -52.377271     -321.92336     -209.64038      3699667.9    
    271000   300.01609      0.89428883     0.67860085     1.5728897      188.88425      107.40168      182.42062      248.51792     -17.441369     -52.345011     -57.121737     -106.05536     -240.64856      3700673.2    
    272000   299.3965       0.89244195     0.67685788     1.5692998      188.98284      107.39231      182.31141      49.46646       21.51023      -4.6152947      229.03981     -133.29656     -202.1954       3700065.5    
    273000   300.01806      0.8942947      0.67891939     1.5732141      188.93667      107.35111      182.38475      299.29693      164.41945      150.47051     -9.6529647     -76.973189     -236.48884      3699229.8    
    274000   300.11577      0.89458595     0.6766118      1.5711978      188.88451      107.3424       182.38129     -223.24176     -281.24064     -4.5281526     -200.12704     -163.04096     -173.07784      3697838.4    
    275000   300.07717      0.89447088     0.67707784     1.5715487      188.96233      107.36797      182.4152       318.56862      112.71668     -36.582181      19.816653     -64.439874     -343.61498      3700931      
    276000   300.38371      0.89538461     0.67806302     1.5734476      188.8953       107.38139      182.39086     -297.98746      62.751404      185.52471     -19.881993     -43.405569     -225.65022      3699586.7    
    277000   300.03657      0.89434987     0.678863       1.5732129      188.99735      107.34917      182.33756      129.03498      113.31288     -77.294638      50.529673     -160.6833      -233.98663      3699393.6    
    278000   299.98459      0.89419492     0.67737629     1.5715712      188.94608      107.35745      182.39388      72.480511      158.51694      114.14256      11.698985     -71.96488      -189.81408      3699817.9    
    279000   299.48068      0.89269286     0.67664214     1.569335       188.81711      107.357        182.38718      55.340124     -66.40447      -42.515751      79.404271      22.106907     -326.66625      3697141      
    280000   299.98217      0.89418771     0.67881755     1.5730053      188.96222      107.3571       182.34197      323.6666      -270.55152      284.95248     -119.93057     -263.46412     -108.61012      3699068.6    
    281000   300.18267      0.89478537     0.67653842     1.5713238      189.01264      107.32234      182.38462     -230.89095     -33.037806      105.86753      138.42492     -34.60887      -212.45206      3699722.7    
    282000   300.09826      0.89453376     0.67754138     1.5720751      188.93947      107.37609      182.37955      80.561464     -73.611975     -190.42914      163.22465     -104.81059     -230.38306      3700040.2    
    283000   299.72332      0.89341612     0.67797677     1.5713929      188.91407      107.37248      182.44645      131.51369      140.39059      69.249694      25.076533     -15.661112     -267.91069      3700775.2    
    284000   300.05639      0.89440895     0.67650955     1.5709185      188.91771      107.40547      182.32651      198.26357      82.831122      105.60832     -20.700751     -65.297039     -154.91351      3699549.9    
    285000   300.63006      0.89611893     0.67928783     1.5754068      188.98891      107.38979      182.46315      25.105507     -18.678421     -64.219286     -15.92797      -119.59836     -249.71972      3703177.2    
    286000   300.31633      0.89518379     0.6805871      1.5757709      188.92723      107.32909      182.50546     -78.42717      -202.94574     -17.75832      -82.351493     -86.005801     -256.92362      3700734.2    
    287000   300.30608      0.89515323     0.67895515     1.5741084      188.945        107.35485      182.37145      4.2622275      44.970326      59.817958      5.3187382     -56.392998     -264.19229      3699252      
    288000   300.35755      0.89530664     0.67667913     1.5719858      188.9369       107.33411      182.40578     -119.79424      43.098099      0.64196303    -133.35751     -51.017614     -197.85992      3699075.2    
    289000   300.51895      0.89578774     0.67971053     1.5754983      188.90151      107.40037      182.50966     -107.7267      -207.11329     -90.905627     -23.563972     -190.95829     -207.72722      3702772.8    
    290000   299.8119       0.89368016     0.67911681     1.572797       189.00515      107.41231      182.41525      54.092868      131.38773     -15.970406      15.117126     -133.98685     -251.25999      3703299.5    
    291000   300.01083      0.89427313     0.67988214     1.5741553      188.9257       107.41422      182.39343     -230.6982      -50.531775      24.762412     -32.903577      54.384471     -376.62637      3701366      
    292000   299.79954      0.89364333     0.67706648     1.5707098      188.88369      107.39302      182.36635     -247.31215     -36.057749      68.19717       77.895782     -153.61919     -338.61179      3699262.9    
    293000   300.24173      0.89496139     0.67806878     1.5730302      188.98181      107.37408      182.54128     -197.00777     -69.372273      41.239887      100.17151     -159.35297     -300.65743      3704081.4    
    294000   299.61813      0.89310257     0.67633476     1.5694373      188.9172       107.38131      182.42162      24.994734     -35.839635      219.77301     -69.191805     -82.941219     -146.11414      3700637.3    
    295000   299.82724      0.89372589     0.6782201      1.571946       188.81209      107.32424      182.41924      258.71664      291.22758     -62.648803     -196.93752     -109.28751     -272.61767      3696564.3    
    296000   299.90293      0.8939515      0.67901449     1.572966       188.94226      107.37965      182.38123     -4.7654914      436.5918       138.9231       14.909498      31.770717     -297.22113      3700251.6    
    297000   300.73299      0.89642575     0.67761671     1.5740425      188.90001      107.31305      182.40297      296.79723      218.75298      114.22825      144.74107      0.0023615756  -295.33183      3697570.1    
    298000   300.05815      0.89441419     0.67908186     1.5734961      189.00053      107.39945      182.41577     -93.978295      42.993292      95.845313     -5.0898574     -26.387101     -406.6436       3702776.2    
    299000   299.75743      0.89351782     0.6798419      1.5733597      188.91041      107.40899      182.51816     -81.399911      64.690863      45.857247     -98.268847     -152.53419     -336.88586      3703417      
    300000   300.3416       0.89525911     0.67795938     1.5732185      188.94891      107.33633      182.56188      172.543       -31.247757     -3.7901215      46.33937       39.139819     -218.1643       3702552.5    
    301000   300.49936      0.89572935     0.67830521     1.5740346      189.04021      107.35265      182.41589      59.755932      226.96792      10.242362     -65.560655     -78.752824     -196.42162      3701942.2    
    302000   300.04089      0.89436275     0.67836225     1.572725       188.9625       107.34116      182.40172     -198.92958      81.097499      88.477208     -65.96915      -200.1757      -257.19386      3699737      
    303000   300.1809       0.89478007     0.67894771     1.5737278      188.93858      107.37896      182.42348     -94.732614     -173.30088     -155.93348      50.598814     -176.49911     -178.0185       3701012.8    
    304000   299.30042      0.89215554     0.67821214     1.5703677      188.86388      107.3975       182.45634      4.7279803     -138.954        49.479742      17.607182     -22.453171     -389.22103      3700854.6    
    305000   299.87111      0.89385665     0.6771581      1.5710148      188.91115      107.41077      182.32254      94.124627     -67.507789      189.94266      236.55169      48.365771     -313.18906      3699523.3    
    306000   299.22851      0.8919412      0.68148767     1.5734289      188.95077      107.36635      182.53315      12.851702     -34.725343      104.91944      36.780008     -88.914139     -198.5412       3703041.9    
    307000   300.51633      0.89577994     0.67751574     1.5732957      189.08079      107.31193      182.52669      247.79686      365.97819      124.21458      75.378725     -224.46705     -149.98344      3703580.5    
    308000   300.16811      0.89474197     0.67747764     1.5722196      188.93301      107.3248       182.53188     -98.033093      112.90633     -50.764503      62.409039     -122.2296      -224.54964      3701235.1    
    309000   300.00757      0.89426342     0.67826192     1.5725253      188.98581      107.34769      182.5252      -27.074975      151.63677      125.03383      36.989296     -27.330735     -221.81183      3702923.4    
    310000   300.09697      0.89452992     0.67833062     1.5728605      189.0106       107.34626      182.47162      106.81084     -32.965861      78.85809       36.92407      -107.73721     -267.32635      3702272.7    
    311000   300.48808      0.89569573     0.67777695     1.5734727      188.95758      107.35793      182.47547      57.154951     -14.182043      137.19176      102.84841     -209.97367     -330.79307      3701714.7    
    312000   300.19592      0.89482487     0.68034628     1.5751712      189.01084      107.40252      182.50258      19.419003     -80.26432      -116.50925     -145.79696     -198.09748     -192.80236      3704846.2    
    313000   300.34122      0.89525798     0.67746929     1.5727273      189.00875      107.33369      182.46548     -40.773361     -310.71941     -123.80764      25.416227     -125.25878     -228.80368      3701678.2    
    314000   299.96216      0.89412807     0.67935512     1.5734832      188.89169      107.3872       182.53147     -219.43057     -4.8771514      112.82003     -101.76212     -191.16936     -348.2634       3702568.7    
    315000   300.36926      0.89534156     0.67746484     1.5728064      188.9478       107.37783      182.51105      192.16433     -17.60686      -12.829883      80.426034     -39.752456     -203.45986      3702930.8    
    316000   299.43932      0.89256957     0.67888304     1.5714526      188.89345      107.3773       182.45227      132.84928     -174.52938     -161.20991     -4.3260394     -21.782379     -193.71542      3700655.3    
    317000   300.20271      0.89484509     0.67735409     1.5721992      188.94951      107.32249      182.43532      144.13501      63.405166     -118.91887      79.848758      12.463429     -340.40111      3699520.3    
    318000   300.01657      0.89429024     0.67799935     1.5722896      188.95148      107.30812      182.46873      131.11363      70.04349      -58.296861      65.548392     -263.8942      -259.92437      3699741      
    319000   300.0288       0.89432671     0.67945445     1.5737812      188.90482      107.36892      182.55147     -145.06681     -5.2246023     -158.91555     -157.36308     -198.3623      -265.73192      3702601.3    
    320000   299.17869      0.89179268     0.6792631      1.5710558      188.98578      107.37461      182.50246     -4.3582906     -226.84495     -49.118312      61.991232     -111.68694     -223.95303      3703389.9    
    321000   299.771        0.89355825     0.68074107     1.5742993      188.99722      107.35511      182.51583     -60.067117     -226.34188     -13.529252      142.62742     -84.750776     -300.27069      3703212.8    
    322000   299.93779      0.89405542     0.6792713      1.5733267      188.95219      107.38639      182.61674     -283.66208     -219.47564      134.67745     -2.5628708     -14.070283     -232.72959      3705456.8    
    323000   299.60359      0.89305923     0.68141295     1.5744722      189.07578      107.37154      182.53364     -156.27639      301.04778      60.055016      177.92171     -251.49905     -308.88382      3705680.6    
    324000   300.43004      0.89552271     0.68162479     1.5771475      188.92733      107.28632      182.50597      29.068925     -34.77851       116.67035     -106.98891     -101.24328     -241.10672      3699271.5    
    325000   299.954        0.89410375     0.6778647      1.5719685      188.96716      107.39135      182.57793      271.00409     -244.31332     -170.68647      34.077949     -117.40861     -200.92783      3705134.1    
    326000   300.09912      0.89453631     0.67879867     1.573335       188.98086      107.34191      182.53933     -68.767585      341.45429     -16.938561      132.53839     -35.528337     -282.85293      3702913.9    
    327000   299.99856      0.89423658     0.67766047     1.5718971      188.92281      107.35133      182.55329     -238.49761     -318.00002     -251.52558     -136.14887     -160.61122     -265.21381      3702384.2    
    328000   299.88736      0.8939051      0.68072983     1.5746349      188.973        107.38309      182.53054      143.78615      172.58701      174.43003     -26.008667     -131.05207     -450.88886      3704001.7    
    329000   299.83476      0.8937483      0.67616875     1.5699171      188.95706      107.34642      182.44999     -152.36245      50.747436      9.1674802      190.12172     -159.75451     -292.73348      3700790.9    
    330000   300.36551      0.89533037     0.67864867     1.573979       189.0024       107.3841       182.55996     -162.45359     -65.310097      39.66216       17.232522     -30.094304     -198.49769      3705210.1    
    331000   299.92754      0.89402487     0.67860246     1.5726273      189.03609      107.34112      182.57875      191.83959      15.993441     -10.797104     -64.74339      -174.65501     -296.54709      3704768.7    
    332000   299.9403       0.8940629      0.67866273     1.5727256      189.0086       107.36348      182.51979     -58.905794      66.050227      220.02977     -78.249631     -132.558       -424.71041      3703804.8    
    333000   300.06471      0.89443375     0.67834686     1.5727806      188.99863      107.34814      182.50495     -175.05071      132.39218      40.105582     -115.20532     -70.054935     -282.61604      3702779.3    
    334000   300.58405      0.89598179     0.67964292     1.5756247      189.04195      107.36652      182.52481      33.104228     -245.27033      60.659219      331.06416      93.30795      -301.66854      3704665.2    
    335000   299.53708      0.892861       0.67912415     1.5719852      188.91963      107.40105      182.52558     -16.463824     -25.960825     -61.305783     -36.531418     -135.14657     -323.87732      3703474.4    
    336000   299.88135      0.89388718     0.6797248      1.573612       188.89572      107.40735      182.55134      230.99671     -374.38081     -99.446121     -95.278836     -29.039279     -378.89255      3703745.6    
    337000   299.7578       0.8935189      0.67933018     1.5728491      188.90595      107.3671       182.5404      -194.82579     -277.44163     -126.26143     -112.48922     -137.32787     -323.83418      3702336.1    
    338000   300.11478      0.89458298     0.67915507     1.5737381      189.01876      107.39193      182.55222     -91.646236      123.02483     -47.108533      37.884424     -184.8178      -174.07139      3705643.9    
    339000   299.89033      0.89391394     0.68083733     1.5747513      188.99076      107.34426      182.59562      158.77014     -79.776458     -123.03357     -312.51194     -122.27825     -343.61094      3704330.6    
    340000   300.191        0.89481019     0.67960352     1.5744137      189.0679       107.3417       182.51548      223.1453       149.6349       49.191595      29.287541     -239.94785     -395.12138      3704127.8    
    341000   299.66651      0.89324679     0.68082127     1.5740681      189.04473      107.356        182.50754      210.12652     -71.984504      93.223573      26.143693     -151.32337     -254.69383      3704006.2    
    342000   299.61161      0.89308316     0.67875149     1.5718347      188.97054      107.371        182.46928      168.05281     -245.48988      278.31346     -100.65699     -39.560984     -361.73513      3702293.6    
    343000   300.43222      0.89552921     0.68078394     1.5763131      188.97858      107.35325      182.68238      55.711177      198.15687     -31.276593     -316.87781     -75.756727     -416.35329      3706162.2    
    344000   299.86675      0.89384366     0.6783347      1.5721784      188.99332      107.34747      182.64692     -388.33918     -393.51374     -51.295965     -245.45763     -118.34659     -225.60883      3705532.3    
    345000   299.84075      0.89376616     0.68094814     1.5747143      188.98991      107.36729      182.51867      203.99563      66.138919      278.06522     -1.9150209     -188.02635     -176.26645      3703547.3    
    346000   300.37118      0.89534728     0.67950022     1.5748475      189.08378      107.37704      182.57685      53.36862      -294.93549     -1.4650772      0.54579073    -50.610621     -298.65295      3706904.5    
    347000   299.82926      0.89373193     0.67858992     1.5723218      188.91246      107.36062      182.64911     -58.116398     -301.3871       34.504888      14.752373     -129.17284     -264.16064      3704445.2    
    348000   300.30958      0.89516365     0.6796305      1.5747942      188.95363      107.34941      182.61098      293.44306      68.068932      145.78948      120.70138     -226.68675     -305.48634      3704092      
    349000   299.81129      0.89367836     0.6776197      1.5712981      188.95229      107.37108      182.55297     -149.1213      -164.73872     -79.239195     -19.822776     -232.1798      -424.61462      3703636.8    
    350000   300.09394      0.89452086     0.68101742     1.5755383      188.97483      107.35815      182.53736     -261.59982     -198.33041     -108.9868      -23.468347     -102.0108      -314.11614      3703315.6    
    351000   299.78673      0.89360513     0.68039396     1.5739991      189.02556      107.39524      182.57283     -180.49937      197.73491      188.39955     -0.78042071    -70.578289     -347.48621      3706309.6    
    352000   299.6974       0.89333888     0.68064589     1.5739848      188.98384      107.34631      182.56837      0.69509391     96.868186     -128.6161      -62.911652      12.321594     -250.35167      3703713      
    353000   299.69907      0.89334384     0.68154494     1.5748888      188.93933      107.33974      182.55295     -25.103807     -118.11082     -8.1512759     -218.03539     -112.99438     -369.80564      3702301.2    
    354000   299.73148      0.89344045     0.67879073     1.5722312      189.05495      107.33529      182.5958      -30.918746      33.484752     -52.939098      162.6196      -191.60019     -252.06828      3705282.7    
    355000   300.11782      0.89459206     0.68135859     1.5759506      188.99712      107.38069      182.7617      -116.73527      227.88552     -110.55001      66.731137     -379.89645     -206.89931      3709083.1    
    356000   300.30556      0.89515166     0.67916041     1.5743121      189.07139      107.35159      182.60295     -21.955477      97.413853     -97.849205      13.304791     -127.56431     -370.63724      3706312.9    
    357000   300.00894      0.8942675      0.67841344     1.5726809      188.93557      107.35355      182.55885      121.14588      41.291649      46.23454      -119.95662     -31.4382       -475.11643      3702823.5    
    358000   300.45738      0.89560421     0.68224728     1.5778515      189.05964      107.34435      182.73018      77.604009      175.20184     -110.53399      112.9504      -181.15925     -217.16325      3708414.5    
    359000   299.50957      0.89277897     0.67993845     1.5727174      189.02211      107.36133      182.48228     -61.073509     -376.64441     -99.131926      68.633522     -29.85884      -200.81586      3703234.1    
    360000   299.85832      0.89381853     0.68272199     1.5765405      189.00444      107.3578       182.63946      134.92742      109.99579      36.914896     -72.111669     -100.24929     -206.23596      3705955.8    
    361000   300.16764      0.89474055     0.68074533     1.5754859      188.94169      107.37067      182.66727      192.04167     -57.285355     -243.14755      124.10718     -76.853073     -272.24736      3705733.6    
    362000   299.59855      0.89304422     0.68090573     1.57395        188.997        107.40871      182.64978     -80.345944     -62.519493      73.852876     -198.7234      -148.66762     -317.93632      3707776.5    
    363000   299.90437      0.89395581     0.6803871      1.5743429      188.98315      107.36876      182.63272      74.56463      -169.51747      1.9238278     -78.575471     -142.38453     -216.53086      3705779.7    
    364000   299.83751      0.89375652     0.67865027     1.5724068      188.97929      107.34687      182.58541      90.419931      254.68162      91.816318     -7.8229018     -122.16504     -154.22578      3703988.8    
    365000   300.72011      0.89638735     0.6801084      1.5764958      189.12782      107.35415      182.56495      42.462052      18.631139     -76.62376      -238.9351      -63.960424     -304.15444      3706735.8    
    366000   300.65099      0.89618133     0.67907507     1.5752564      189.08104      107.32692      182.62317     -5.9162934     -61.322574      12.025231      118.31246     -238.42568     -241.73189      3706060.8    
    367000   299.68611      0.8933052      0.67874011     1.5720453      188.99981      107.41175      182.5717      -138.3334       37.824683      46.857852      4.6611185     -100.06775     -336.25944      3706351.7    
    368000   300.08387      0.89449085     0.68066253     1.5751534      188.96054      107.35223      182.66412      69.010199     -181.96617     -274.62841      139.21572     -298.33085     -266.48905      3705402.9    
    369000   299.92604      0.8940204      0.68043079     1.5744512      189.00932      107.34372      182.60355     -91.830535      36.425463     -95.664456     -5.7570847     -108.76594     -371.01925      3704836.6    
    370000   299.87872      0.89387935     0.67885384     1.5727332      189.06188      107.34629      182.61264     -86.847806      434.81687      42.361257     -140.85852     -183.59013     -381.14764      3706140.1    
    371000   299.93853      0.89405762     0.68044772     1.5745053      189.0325       107.29844      182.64547     -7.7967905      374.80826      55.814182      177.98853     -194.88        -403.43338      3704578.1    
    372000   299.99555      0.89422758     0.68056833     1.5747959      188.99305      107.34515      182.58801      27.862135     -42.604133     -65.14703      -101.68982     -24.361492     -376.64522      3704251.9    
    373000   300.40862      0.89545887     0.68084782     1.5763067      188.99813      107.32943      182.6101       44.963613     -138.76732     -8.7127376      34.016203      9.73252       -191.67818      3704257.3    
    374000   300.0479       0.89438364     0.68054551     1.5749291      189.01695      107.35218      182.60588     -290.4749       233.13576     -53.106017      74.867788     -73.801956     -369.64385      3705325.8    
    375000   300.51617      0.89577946     0.68221493     1.5779944      188.91841      107.29236      182.75324      90.740747     -37.909615      137.93633      67.228781     -223.58497     -283.65605      3704317.3    
    376000   301.08582      0.89747748     0.68218461     1.5796621      189.10114      107.37457      182.68543      64.289295     -78.994827      224.53154      69.401548     -102.17875     -306.67082      3709364.4    
    377000   300.89226      0.89690051     0.67704717     1.5739477      189.01575      107.3515       182.64943      199.21328      103.37626      20.513675     -43.265587     -153.88416     -231.61779      3706162.3    
    378000   299.84901      0.89379079     0.67827855     1.5720693      188.95205      107.33499      182.65774      308.28395      17.825546     -52.816755      114.99734     -94.712119     -260.23371      3704511.8    
    379000   299.74123      0.89346952     0.680631       1.5741005      189.03176      107.34326      182.67663      326.18972     -229.272        67.368543      94.431148      6.2136597     -418.48964      3706743.8    
    380000   299.28584      0.8921121      0.68043468     1.5725468      188.97486      107.34392      182.67191      217.04066      173.45542     -92.621324      67.275327     -180.766       -429.03724      3705555.1    
    381000   299.79477      0.89362911     0.67911402     1.5727431      189.03317      107.34487      182.6481      -161.34785      58.336229      146.14222      172.04735     -180.10381     -299.19271      3706248.2    
    382000   299.98108      0.89418447     0.68107926     1.5752637      189.05311      107.3652       182.64759     -74.497346     -181.52563      39.041485      101.66781     -173.08573     -189.25016      3707330.3    
    383000   300.07559      0.89446617     0.68232943     1.5767956      189.02974      107.35917      182.63669      79.686136      240.76911      66.912946     -172.00049     -162.59491     -238.60782      3706442.8    
    384000   300.62709      0.89611008     0.6829965      1.5791066      189.12843      107.30422      182.70336      316.63064      215.8408      -72.812909      78.198383     -218.15177     -296.38567      3707832.6    
    385000   300.55352      0.89589079     0.6808286      1.5767194      188.9824       107.34611      182.75277      105.78012     -28.60817      -47.617458     -5.8155191     -162.67427     -272.66407      3707418.7    
    386000   301.08734      0.897482       0.68125241     1.5787344      189.04288      107.33174      182.67877      138.97078     -25.862702      167.23999      58.086016     -199.13331     -202.27651      3706607.2    
    387000   300.273        0.89505462     0.6800541      1.5751087      189.05066      107.35603      182.55848     -327.72581     -205.76527      17.012128      74.390877     -123.66019     -393.7776       3705157.3    
    388000   298.74817      0.8905094      0.67973939     1.5702488      188.9915       107.33953      182.59061      240.93824      222.86477      195.62981     -210.71374     -116.71244     -299.46052      3704080.1    
    389000   299.81477      0.89368874     0.68142022     1.575109       188.95068      107.364        182.64087     -279.35124     -286.75859     -152.04622      95.863987     -83.399373     -317.54217      3705144.1    
    390000   299.8095       0.89367303     0.68100208     1.5746751      189.00157      107.35904      182.71837     -113.14529     -145.44351     -165.25267     -80.453847     -124.4831      -264.12329      3707543.4    
    391000   299.81355      0.89368508     0.6802447      1.5739298      189.03551      107.3816       182.6663       387.7498       222.73328      99.50547      -171.06774     -192.73169     -307.3067       3707931.6    
    392000   300.61298      0.89606804     0.68221291     1.5782809      189.07734      107.36328      182.67744     -49.021155     -116.1133       139.01572      69.272659     -324.30167     -190.00433      3708345.4    
    393000   299.73577      0.89345323     0.68180304     1.5752563      188.98453      107.36112      182.64711     -390.229       -196.59656      25.334358      72.117814     -145.80103     -336.50996      3705835      
    394000   300.5559       0.89589789     0.68034246     1.5762403      188.91524      107.35592      182.68963      123.5042       335.20799      110.42725     -32.260812     -166.72561     -268.63629      3705159.4    
    395000   300.07783      0.89447285     0.68175067     1.5762235      189.16913      107.38213      182.66535      72.641153     -104.48195      147.56944      84.89629      -196.96989     -403.40262      3710551.7    
    396000   299.5578       0.89292276     0.68049899     1.5734218      188.98263      107.34988      182.69712      277.58512     -143.96922      64.868175      94.131008     -184.64404     -292.05157      3706424.6    
    397000   299.44117      0.8925751      0.67881404     1.5713891      189.06619      107.3644       182.65663     -27.068605      41.548173      54.519094     -246.59468     -0.29543258    -340.96976      3707742.9    
    398000   300.45567      0.89559913     0.68072558     1.5763247      189.10691      107.37053      182.63512     -22.993657      60.952327      88.377024     -37.957267     -208.95998     -292.5443       3708316.3    
    399000   300.04523      0.89437569     0.68024353     1.5746192      189.07615      107.30448      182.58434     -170.56413      5.3337372     -22.614067      139.36024     -229.70585     -307.19718      3704402.2    
    400000   300.11761      0.89459142     0.68132289     1.5759143      189.01536      107.33499      182.7329      -364.38843     -425.41271     -173.33785     -51.161421     -85.172607     -250.67986      3707278.3    
    401000   300.29083      0.89510777     0.68159332     1.5767011      189.14691      107.37343      182.82901     -155.82541      154.7747       9.8993628     -72.595533     -184.63881     -360.54088      3713138.7    
    402000   300.36102      0.89531697     0.67795451     1.5732715      188.9689       107.33329      182.6184       95.408817      156.11893      92.757035      290.17227      8.9610757     -268.63681      3703985.6    
    403000   300.69844      0.89632279     0.68237476     1.5786975      189.00239      107.33578      182.62292     -43.582186     -40.702316     -15.475738      57.15987      -75.006448     -344.09396      3704820.1    
    404000   299.56598      0.89294714     0.68004098     1.5729881      188.97746      107.34493      182.86262     -68.207354     -158.96516     -137.9874      -103.92679     -209.98656     -214.18958      3709509.6    
    405000   300.33668      0.89524444     0.67925862     1.5745031      189.05442      107.33275      182.73112      253.15145      301.75314      156.26073      202.18379     -276.22123     -350.4815       3707930.5    
    406000   299.89957      0.8939415      0.68114308     1.5750846      189.07849      107.32998      182.63293     -24.959312      80.015049     -199.95919     -12.971126     -113.16034     -283.4075       3706314.5    
    407000   300.05754      0.89441238     0.68057911     1.5749915      189.11002      107.33394      182.68111      63.777403     -104.60924      7.025758       9.1303103     -120.61915     -387.0536       3708047.2    
    408000   300.25495      0.89500083     0.68301066     1.5780115      189.03459      107.36023      182.86432     -127.69618     -267.79766     -207.85454     -54.191866     -130.49432     -315.46938      3711194.4    
    409000   299.8768       0.89387361     0.68113375     1.5750074      189.03952      107.35609      182.69076     -65.057708     -120.15087     -44.496656     -70.989039     -134.35733     -326.12434      3707625.7    
    410000   300.09137      0.89451322     0.68267212     1.5771853      189.05886      107.37015      182.70719     -301.2526      -104.63129     -204.13503     -63.733169     -205.04351     -254.16053      3708824.1    
    411000   300.25124      0.89498977     0.68050838     1.5754981      189.00843      107.36393      182.60138      34.387885      137.88123      374.39934     -92.991782     -214.44781     -376.59651      3705473.1    
    412000   300.56375      0.8959213      0.68079327     1.5767146      189.10177      107.31927      182.80239     -117.5321       30.004234      111.15046      194.60803     -234.95553     -292.85882      3709840      
    413000   299.72002      0.8934063      0.68135532     1.5747616      189.05652      107.34227      182.81481      301.64468      437.71226      83.271114     -157.28493     -188.15656     -307.57561      3709999.2    
    414000   299.20584      0.89187363     0.68091159     1.5727852      189.11081      107.34         182.74853      93.94349       258.36477      150.1849      -330.29818     -147.04212     -407.95623      3709640.8    
    415000   299.65563      0.89321435     0.67878008     1.5719944      189.07061      107.34822      182.63952     -225.42523      81.91959       14.848345     -134.38347     -172.69352     -209.51466      3706923.6    
    416000   300.8038       0.89663683     0.68122054     1.5778574      189.05977      107.36647      182.72869      68.65958      -140.65002     -7.5463162     -75.270366     -197.61788     -384.24598      3709151.2    
    417000   300.37021      0.89534438     0.67918519     1.5745296      189.05742      107.41099      182.73945     -70.659972     -99.622726      159.73238      183.40774     -238.37657     -213.05009      3710861.8    
    418000   300.13626      0.89464702     0.67965809     1.5743051      189.11941      107.35384      182.81189      70.869125     -329.18992     -103.45291     -173.08661     -150.70044     -154.49897      3711574.1    
    419000   300.22185      0.89490214     0.68230663     1.5772088      189.0743       107.32828      182.76838      139.03962      176.86801      114.68884     -116.10876     -127.54498     -512.6027       3708922.1    
    420000   300.10704      0.89455992     0.68108236     1.5756423      189.22576      107.33339      182.74578     -128.51888      135.88071     -93.760255     -164.28004     -102.58302     -324.68818      3711610.8    
    421000   299.76897      0.89355221     0.67973652     1.5732887      189.09373      107.3347       182.65137     -13.71098      -41.690354      40.356796     -4.5607888     -281.78161     -350.65929      3707150.3    
    422000   300.35439      0.89529724     0.68181828     1.5771155      189.08547      107.33348      182.70236      54.935533     -16.612013      288.6973       147.1553      -111.45655     -401.15366      3707981.1    
    423000   299.68023      0.89328769     0.68142214     1.5747098      188.93669      107.38577      182.73473     -96.537109      57.510094      145.3045       8.0187075     -191.13482     -218.84032      3707525.7    
    424000   299.69139      0.89332096     0.68036361     1.5736846      189.00488      107.32039      182.7423       397.69859     -134.7305       139.31112      45.242922     -59.182624     -373.19001      3706759      
    425000   300.31939      0.89519291     0.68040006     1.575593       189.06584      107.36529      182.77072      130.80851     -163.84762      52.231641      297.85282     -320.39913     -317.2096       3710082.8    
    426000   300.39153      0.89540793     0.68074842     1.5761563      189.13587      107.34289      182.72761     -129.92614      156.4802      -53.300684      396.00017     -216.16088     -245.21641      3709807.2    
    427000   300.49787      0.8957249      0.67911516     1.5748401      189.04421      107.35514      182.86995     -181.15342     -76.968542     -42.871911      114.97851     -244.37517     -291.02245      3711321.4    
    428000   299.70854      0.89337207     0.6818401      1.5752122      189.10879      107.3368       182.78559      203.00073     -189.84794     -47.82486      -9.5815643     -407.35677     -239.39371      3710242.8    
    429000   299.22764      0.8919386      0.68233159     1.5742702      189.20911      107.38362      182.79461      43.908641      57.191772     -26.146291     -38.775348     -214.22        -487.62399      3714013.4    
    430000   300.21715      0.89488813     0.68067034     1.5755585      189.02715      107.35521      182.71725      108.10262     -21.690278      186.32934      42.781707     -208.09221     -346.11516      3707890.1    
    431000   299.91609      0.89399074     0.68268589     1.5766766      189.01906      107.35091      182.82138      22.22987      -293.26017     -23.456673      168.3328      -95.823778     -168.57977      3709696.1    
    432000   299.795        0.89362981     0.68114138     1.5747712      189.16338      107.34525      182.70638     -106.17089      248.59263      6.6783674     -87.967647     -276.02117     -310.59388      3709997.4    
    433000   300.04532      0.89437594     0.68131472     1.5756907      189.19353      107.34631      182.80903      44.109591     -139.59276     -152.01679     -58.363281     -298.85525     -412.7552       3712710.4    
    434000   299.86438      0.89383662     0.67984632     1.5736829      189.11085      107.34883      182.76974      63.865473     -120.97733      90.063413      1.3390244     -178.56767     -301.46464      3710377.1    
    435000   300.77221      0.89654267     0.68237231     1.578915       189.05744      107.35218      182.72244      133.75764      115.34842      263.28673      113.97077     -206.94258     -428.59568      3708485.1    
    436000   300.01416      0.89428308     0.67929858     1.5735817      189.04604      107.35659      182.61538      46.383731      27.266007      116.71923      58.552624     -172.78456     -499.88468      3706240.7    
    437000   300.18763      0.89480014     0.68049412     1.5752943      189.04334      107.36414      182.67167     -130.90974      211.37128      9.901583      -65.055009     -131.76724     -266.11017      3707591.1    
    438000   299.84344      0.89377419     0.6811144      1.5748886      188.97589      107.40311      182.72875     -85.609114      155.75404     -122.93089     -86.568896     -194.316       -432.63618      3708771.9    
    439000   300.47593      0.89565951     0.68280396     1.5784635      189.02414      107.37687      182.64313     -124.49383      370.61491      170.48175      109.3117      -110.81723     -408.99434      3707074.5    
    440000   300.72349      0.89639745     0.68243866     1.5788361      189.02303      107.34461      182.70265      183.31631      111.77972      74.686921     -138.24525     -102.73911     -313.75259      3707146.9    
    441000   300.27968      0.89507452     0.6816615      1.576736       188.98548      107.34402      182.67261     -95.186157     -347.13194     -121.02031     -26.041204     -107.71436     -398.5809       3705780.6    
    442000   300.57089      0.89594257     0.68296057     1.5789031      189.01988      107.3792       182.72336     -18.295355     -50.800291      191.37689     -164.88184     -124.27703     -408.57773      3708700.3    
    443000   300.25419      0.89499856     0.68294108     1.5779396      189.05727      107.40316      182.6706      -312.97445     -211.97781      92.430376     -63.41471      -88.968663     -268.17211      3709190.1    
    444000   300.20224      0.8948437      0.68004783     1.5748915      189.01846      107.35624      182.59499      542.42734      192.02959      100.2108       79.836882     -221.31583     -325.78308      3705274.2    
    445000   300.71273      0.89636535     0.67931958     1.5756849      189.01733      107.36023      182.69106      161.4549       426.57296      202.24686     -330.87326     -280.38896     -81.069405      3707339.4    
    446000   299.44717      0.89259298     0.68245775     1.5750507      188.91933      107.46967      182.65312     -314.00218     -529.48869     -247.12292     -164.99191     -187.13125     -266.05473      3708423.9    
    447000   299.53548      0.89285621     0.6826642      1.5755204      189.01962      107.38728      182.75531      294.06537     -220.08024     -115.37561      49.183046     -145.47827     -384.50141      3709622.6    
    448000   299.91307      0.89398175     0.67797891     1.5719607      188.92943      107.43316      182.70731     -419.86219     -103.66873     -221.05455      14.533029     -134.52415     -201.68168      3708462.6    
    449000   300.21469      0.8948808      0.68028194     1.5751627      188.94687      107.43571      182.61791      207.42274     -2.7364729      137.3143      -100.78471     -294.64947     -255.29468      3707078      
    450000   300.64795      0.89617226     0.68028951     1.5764618      188.95325      107.3994       182.68961      164.16861      41.847794      131.23552      5.8342577     -104.78213     -328.98514      3707405.5    
    451000   300.18912      0.8948046      0.68242001     1.5772246      188.95564      107.35749      182.86028      306.75923     -276.80552     -12.437294     -135.86135     -238.88777     -247.59718      3709467.7    
    452000   299.25215      0.89201167     0.67820112     1.5702128      188.96527      107.41029      182.65692     -80.75581      -655.24045     -92.580721      52.113595     -177.71561     -183.84161      3707353.4    
    453000   299.93121      0.8940358      0.68234382     1.5763796      188.88054      107.39729      182.6432      -49.68868      -149.41143     -147.49578     -4.876545      -206.76072     -426.8737       3704964.5    
    454000   299.7518       0.89350104     0.67992842     1.5734295      189.00529      107.41247      182.63882      124.62644     -131.31413     -181.90278     -109.43861     -171.62708     -328.14212      3707846.7    
    455000   300.30162      0.89513993     0.68163122     1.5767711      189.03049      107.41627      182.67242     -269.32475      140.75022     -104.12886     -120.01398     -219.71783     -372.37784      3709154.5    
    456000   300.45094      0.89558501     0.6807343      1.5763193      189.04094      107.38575      182.62701     -281.81584     -185.26542     -43.350793      53.843765     -203.73591     -239.18335      3707383.8    
    457000   299.57919      0.89298651     0.67973789     1.5727244      189.02032      107.38507      182.65094     -329.59547     -4.5789236      159.42354     -108.47188     -299.13498     -372.11476      3707441.5    
    458000   300.18655      0.89479694     0.67966222     1.5744592      188.96043      107.39923      182.66131      255.61012     -81.692999      221.89307     -70.634035     -271.45094     -285.52087      3706966.3    
    459000   300.78681      0.89658618     0.681088       1.5776742      189.06338      107.42533      182.602        73.394257     -69.555666     -33.15081      -105.74077     -158.06278     -390.86548      3708682.5    
    460000   299.35481      0.89231766     0.68008076     1.5723984      188.91519      107.39583      182.643        22.779247     -68.791675     -87.769114      252.68059     -235.30059     -409.18507      3705589.5    
    461000   299.32789      0.89223742     0.68047948     1.5727169      188.76287      107.41238      182.74419      161.74971     -316.23788     -99.702313     -26.332442     -175.71201     -267.58264      3705224.2    
    462000   300.03087      0.89433288     0.67847847     1.5728114      188.99092      107.39304      182.62916      134.3282      -184.59233     -161.04766      38.680611     -153.44489     -346.35625      3706697.8    
    463000   300.07329      0.89445932     0.68260247     1.5770618      189.06206      107.33457      182.58864      79.032339      267.34403      64.869848      32.868025     -197.83431     -320.6327       3705251.9    
    464000   299.77789      0.89357879     0.67974195     1.5733207      188.92567      107.35503      182.61816     -173.19329      168.29965     -54.727462      55.299257     -262.67593     -117.93861      3703883.8    
    465000   299.74069      0.89346789     0.67895371     1.5724216      188.9548       107.36138      182.63429     -238.47657     -259.22349     -2.9872175      136.24416     -113.65351     -343.0907       3705001.3    
    466000   299.96215      0.89412804     0.68053177     1.5746598      188.87325      107.39574      182.5848      -173.04517     -41.960545     -152.55881      79.859648     -219.46685     -310.56577      3703583.5    
    467000   300.03306      0.89433941     0.67921432     1.5735537      188.97817      107.39762      182.63569      472.44921      145.38673      167.70959     -87.419032     -385.65691     -266.05128      3706738.5    
    468000   300.11868      0.89459461     0.6780523      1.5726469      188.89932      107.39004      182.66838     -393.01719     -233.99332     -72.567144     -77.008181     -151.19456     -178.74629      3705593.5    
    469000   300.09152      0.89451365     0.67955942     1.5740731      189.03623      107.38405      182.54201     -179.72811     -322.14678      61.419694      28.402013     -293.04024     -257.81057      3705507      
    470000   300.33678      0.89524472     0.68083415     1.5760789      188.91777      107.33834      182.55196      91.79519      -176.07379      20.854935      159.5909      -289.24182     -359.45445      3701810.8    
    471000   300.01169      0.89427569     0.6804203      1.574696       189.00224      107.37797      182.62928     -314.18465      394.45542     -51.286768     -21.663212     -331.99015     -298.91607      3706402.1    
    472000   300.15486      0.89470245     0.68160965     1.5763121      188.9867       107.38088      182.57721      108.99802      197.80553      32.415689      27.991375     -83.774856     -418.21709      3705141.5    
    473000   299.70306      0.89335574     0.68017314     1.5735289      188.92519      107.44516      182.53127     -374.74114     -309.52103      137.96554     -170.73556     -206.34577     -241.2443       3705219.9    
    474000   300.00858      0.89426643     0.67981465     1.5740811      188.8665       107.40401      182.63158     -41.148006      34.014863     -178.78563      6.9899347     -274.91052     -350.10044      3704685.1    
    475000   299.43498      0.89255666     0.67864436     1.571201       188.88156      107.43035      182.70535     -51.670977     -3.2921289     -161.06346     -256.42524     -206.69163     -275.30387      3707386.2    
    476000   299.88159      0.89388791     0.67960424     1.5734921      188.88057      107.43704      182.6809       139.98026      113.63767      203.38697      36.134459     -104.56197     -445.66851      3707101.2    
    477000   300.24663      0.89497601     0.67971923     1.5746952      189.04578      107.41904      182.57633      75.463925     -16.910376      226.35888     -153.69266     -199.79687     -476.24324      3707598.8    
    478000   300.41638      0.895482       0.67856453     1.5740465      188.91726      107.43043      182.58493     -81.447879      25.062884      234.53879     -136.36778     -283.92302     -138.18744      3705645.5    
    479000   300.14186      0.8946637      0.67947668     1.5741404      188.93151      107.42854      182.62627     -64.391043      262.88213      9.0033736      33.736833     -148.049       -359.34542      3706698.8    
    480000   300.17206      0.89475375     0.67826405     1.5730178      188.94265      107.37765      182.62567     -170.86906      119.89119     -130.24892     -124.92411     -200.89939     -338.26468      3705149.6    
    481000   299.96081      0.89412403     0.68317557     1.5772996      188.93527      107.44938      182.64929     -77.642821     -53.849057      142.40518     -101.89518     -235.89039     -357.26996      3707959.2    
    482000   299.62931      0.89313591     0.68212896     1.5752649      188.87106      107.40551      182.5132      -87.13585      -9.9168881      85.045501      63.5648       -179.80732     -320.35931      3702424.7    
    483000   299.93984      0.89406154     0.67989965     1.5739612      188.83354      107.44162      182.51609     -127.04505     -226.14375      253.79592      48.561897     -214.89592     -247.35717      3702992.6    
    484000   300.75966      0.89650526     0.68312067     1.5796259      188.95666      107.44923      182.58782     -20.449172     -165.2641      -11.268497     -147.85022     -237.5757      -215.20428      3707125.6    
    485000   299.23723      0.8919672      0.67974903     1.5717162      188.98012      107.38558      182.63995      129.26449     -95.930987      79.750923      186.87006     -203.06958     -440.64718      3706447.4    
    486000   300.17822      0.89477208     0.68122032     1.5759924      189.07441      107.37687      182.70183     -144.91489      180.06979      150.88793     -80.527999     -201.72934     -355.993        3709252.4    
    487000   300.11279      0.89457707     0.67987504     1.5744521      188.89006      107.38788      182.5685       104.06703     -68.202377      34.52752      -114.28318     -276.83182     -305.53823      3703311.5    
    488000   299.67614      0.8932755      0.67948694     1.5727624      188.92392      107.4274       182.56566     -323.69653     -292.66584      93.655486      106.32772     -163.29172     -329.80693      3705280.7    
    489000   300.02984      0.8943298      0.67975679     1.5740866      188.93975      107.38725      182.68692      254.19964      154.64364     -45.073419      178.18341     -149.3196      -250.74001      3706666.6    
    490000   299.41359      0.8924929      0.68036548     1.5728584      189.01587      107.39098      182.55163     -97.306393     -128.94078     -89.29307      -112.26546     -102.96371     -258.31161      3705542.5    
    491000   299.71626      0.8933951      0.67830338     1.5716985      189.0043       107.37286      182.65404     -226.46368      60.285251     -44.572458      154.65049     -178.69329     -358.16373      3706768.5    
    492000   300.12583      0.89461594     0.68009644     1.5747124      188.98497      107.41132      182.71669     -375.418        300.19749      54.058032     -109.44631     -155.14888     -328.00298      3708988.6    
    493000   300.00835      0.89426573     0.68012633     1.5743921      188.93096      107.44347      182.66658     -93.950304      2.5335851      122.79494     -83.309594     -253.71865     -322.99421      3708021.6    
    494000   300.21388      0.89487841     0.6803103      1.5751887      188.9889       107.40324      182.63297      78.800746      170.13768     -240.18922     -22.906622     -275.50517     -342.50831      3707087.6    
    495000   299.76942      0.89355355     0.67975937     1.5733129      188.87595      107.37464      182.60643      123.849       -19.806365      58.7133        202.68035     -296.49231     -332.78974      3703347.4    
    496000   299.86444      0.89383679     0.68219234     1.5760291      188.94561      107.4007       182.61534     -100.58633      292.28115     -60.869913      32.045978     -110.3396      -239.45147      3705793.1    
    497000   300.20628      0.89485573     0.68073938     1.5755951      188.86106      107.39857      182.61445     -14.961559      178.87293     -91.867432     -22.100651     -210.06112     -350.88564      3704043.2    
    498000   300.49303      0.89571048     0.68038762     1.5760981      188.89822      107.44125      182.70347     -271.50242      209.21506     -24.88543       24.34508      -186.09469     -235.64566      3708051.1    
    499000   300.31912      0.89519208     0.6771552      1.5723473      188.8733       107.35964      182.5299       48.575338      139.4437       18.916847     -117.06379     -204.99258     -395.35093      3701226.2    
    500000   299.56803      0.89295324     0.67747655     1.5704298      188.8805       107.39904      182.49486     -6.6737895      124.51317      65.39582      -172.64843     -299.58139     -375.18831      3702014.8    
    501000   300.44958      0.89558096     0.68136428     1.5769452      188.81305      107.42186      182.59953      85.651621     -113.62353      148.46968     -87.758133     -332.0198      -348.98244      3703602.5    
    502000   300.67186      0.89624354     0.67908474     1.5753283      188.83466      107.41595      182.70515      96.126304      326.1035       23.633526      9.9969857     -217.85203     -237.03641      3705964.5    
    503000   299.48877      0.89271699     0.68076669     1.5734837      188.85498      107.45348      182.63792     -72.724641     -275.9193      -178.20083      74.501924     -242.06823     -353.12306      3706294.2    
    504000   299.86938      0.89385152     0.67913296     1.5729845      188.91423      107.48467      182.52939      1.9495925      125.39423     -28.852702     -117.81675     -229.86242     -257.99455      3706329.4    
    505000   300.25234      0.89499304     0.68114599     1.576139       188.91988      107.4071       182.64645      208.88578      280.78222     -61.275166      61.830456     -115.18711     -281.55719      3706140.8    
    506000   300.32529      0.89521047     0.67900082     1.5742113      188.93987      107.42785      182.58234     -196.7418      -75.342552     -41.81267      -118.60551     -202.6308      -300.13202      3705947.7    
    507000   299.80242      0.8936519      0.67976066     1.5734126      188.80689      107.43158      182.61923     -28.984874     -26.420501      30.08005      -126.02338     -362.80672     -292.93863      3704215.9    
    508000   299.89055      0.89391462     0.67990994     1.5738246      188.87705      107.44544      182.47335     -28.181599      81.508415      289.22271     -134.98851     -226.022       -274.51826      3703110.3    
    509000   299.85869      0.89381966     0.68100825     1.5748279      188.93307      107.44202      182.51154     -235.95779      85.092693      134.77902      13.368158     -283.83727     -339.41958      3704865.8    
    510000   300.21134      0.89487083     0.68007928     1.5749501      188.8244       107.45231      182.53228      213.35409      17.061617      136.14888     -154.95259     -148.71837     -270.49008      3703510.3    
    511000   299.90178      0.89394807     0.67979342     1.5737415      188.70612      107.40033      182.56535      138.02956     -75.130228     -138.35628     -47.947558     -270.45839     -151.25055      3700070.1    
    512000   300.83013      0.8967153      0.67836097     1.5750763      188.83422      107.40448      182.54741      134.00024      304.08124     -133.9547      -206.87663     -120.63622     -358.19237      3702360.9    
    513000   299.3351       0.89225894     0.68069238     1.5729513      188.92643      107.42391      182.6271      -313.89035     -97.895459     -43.68671      -5.5445504     -307.85914     -157.16958      3706456.4    
    514000   299.82105      0.89370744     0.6800033      1.5737107      188.88522      107.48095      182.53979     -475.50822     -278.3958       134.30932     -63.864476     -277.8257      -384.26754      3705842.8    
    515000   300.14367      0.89466911     0.68199224     1.5766614      188.82956      107.4457       182.59703      50.434725     -18.812049     -3.5444063      68.99929      -208.4274      -275.91048      3704697.3    
    516000   299.73829      0.89346074     0.68101487     1.5744756      188.90383      107.43374      182.51026      148.12223      43.614068     -153.35307     -86.317957     -277.24379     -346.31785      3703981.1    
    517000   299.93372      0.89404329     0.67735084     1.5713941      188.83606      107.45382      182.4796       308.37851      6.3455599      19.09158       66.285968     -256.2636      -358.38016      3702721.7    
    518000   299.96148      0.89412603     0.67917111     1.5732971      188.852        107.4788       182.52051     -212.40122      46.836538      92.532173     -56.762662     -167.8973      -317.56383      3704725.7    
    519000   299.8473       0.89378568     0.67986325     1.5736489      188.95163      107.44669      182.54413      102.85499     -120.96975     -164.82585     -119.0827      -156.6315      -302.18966      3706052.2    
    520000   299.97414      0.89416377     0.68014552     1.5743093      188.9797       107.46145      182.54931      47.850603     -237.75423     -10.252094      71.408495     -128.78028     -299.29425      3707217.2    
    521000   300.45326      0.89559194     0.67984548     1.5754374      188.90872      107.42616      182.52753     -32.215785     -281.95518     -98.788006      236.28211     -227.23668     -342.01882      3704165.7    
    522000   300.42847      0.89551804     0.6814619      1.5769799      188.83323      107.42337      182.61845      13.392986     -172.33662     -51.8583       -109.02233     -236.97893     -216.079        3704434      
    523000   299.4337       0.89255283     0.68085179     1.5734046      188.86504      107.44578      182.56435      182.124        198.94804      286.07734      128.24669     -53.031576     -105.2164       3704733.1    
    524000   300.58661      0.89598944     0.68058034     1.5765698      188.8638       107.50551      182.50182      166.67658      54.138508      78.805322     -90.661037     -238.96837     -282.50137      3705498.3    
    525000   299.2405       0.89197693     0.68163322     1.5736102      188.80541      107.46932      182.51913     -21.230636     -124.26938     -9.7712053     -6.0544666     -243.04477     -200.79073      3703457.3    
    526000   299.84917      0.89379127     0.68052718     1.5743185      188.83756      107.4384       182.51853      312.1867       43.26705       82.701657     -121.53055     -200.79115     -214.33753      3703009.9    
    527000   299.68276      0.89329522     0.68120967     1.5745049      188.82957      107.41837      182.50564      74.162311      79.995544      47.712261      47.467601     -224.63329     -211.51072      3701901.5    
    528000   299.69224      0.8933235      0.68106726     1.5743908      188.78815      107.52013      182.55284      418.83583     -163.14552      21.080128     -79.062403     -173.01355     -352.32818      3705553.9    
    529000   299.27432      0.89207775     0.67888294     1.5709607      188.81408      107.49415      182.5235      -81.976206      152.586        155.00086     -239.40832     -418.39721     -382.86942      3704571.3    
    530000   299.47696      0.89268179     0.67882656     1.5715083      188.83503      107.49293      182.39061      119.28689      145.11396      173.5803      -157.69984     -227.88867     -233.96366      3702243      
    531000   300.06052      0.89442127     0.67671676     1.571138       188.81164      107.48707      182.35369     -178.7387       264.26446      34.106662     -103.07149     -150.48953     -326.37697      3700833.6    
    532000   299.69237      0.89332387     0.67910917     1.572433       188.77488      107.48146      182.47414      330.25686     -67.477242      122.68721      22.903152     -281.16046     -232.43088      3702363.8    
    533000   299.9548       0.89410613     0.67775808     1.5718642      188.79267      107.47604      182.47879     -137.22414      110.6274      -75.009794      104.27534     -157.5601      -332.33116      3702620.2    
    534000   300.23014      0.89492686     0.67879478     1.5737216      188.75827      107.5166       182.5794       263.06661      257.72164      71.842626     -21.125551     -151.79251     -268.86462      3705384.4    
    535000   299.99991      0.8942406      0.67834242     1.572583       188.65302      107.51597      182.47303      67.143619      37.705495      22.753017     -129.66276     -359.74975     -191.77151      3701139.4    
    536000   300.47799      0.89566566     0.68085325     1.5765189      188.85623      107.50523      182.47146      182.52836      451.20183     -23.693627      62.61172      -242.69202     -176.94214      3704723.7    
    537000   300.03882      0.89435658     0.67872332     1.5730799      188.86594      107.50333      182.45835      117.93877      77.511009      105.06181     -177.90044     -196.6821      -201.66271      3704582.8    
    538000   300.30188      0.8951407      0.68137316     1.5765139      188.91052      107.50145      182.44403     -38.968844     -318.60249      78.242402      14.333129     -288.43798     -324.92781      3705101.7    
    539000   299.87466      0.89386725     0.67790094     1.5717682      188.84278      107.49914      182.42513      47.518993     -426.51719      136.31395     -82.358254     -263.04204     -427.81157      3703309.7    
    540000   300.02205      0.8943066      0.68090839     1.575215       188.77477      107.50571      182.49299     -105.60598      1.6861605     -142.4595       249.85333     -167.09236     -265.56261      3703579.3    
    541000   300.16949      0.89474606     0.67812616     1.5728722      188.73933      107.51131      182.57446     -239.213        162.34828     -327.6853       148.41496     -117.07141     -134.5095       3704730.3    
    542000   300.20565      0.89485387     0.67727173     1.5721256      188.7911       107.47264      182.52826     -266.40222     -27.392417     -243.97185      159.7147      -133.42875     -300.97721      3703476      
    543000   299.90588      0.8939603      0.67937135     1.5733317      188.75489      107.51501      182.3202      -397.20835     -310.50127      86.77815       29.34945      -322.56834     -362.06345      3700003.3    
    544000   300.32193      0.89520047     0.67950232     1.5747028      188.81537      107.47598      182.3522       219.8051       276.64647      72.987134      112.71194     -280.39822     -212.81424      3700494.7    
    545000   299.60258      0.89305622     0.6789711      1.5720273      188.72642      107.45743      182.38431      162.91691      95.411433      56.277643     -87.150072     -326.06943     -255.08831      3698764.2    
    546000   300.26818      0.89504026     0.68059854     1.5756388      188.77137      107.4825       182.53061      227.33748      100.28913     -103.13758      90.096443     -184.5743      -231.03095      3703476.4    
    547000   300.15156      0.89469262     0.67960875     1.5743014      188.81519      107.47136      182.51486     -84.572145     -303.13449     -155.68507     -84.704913     -191.3634      -156.6539       3703632.8    
    548000   300.74382      0.89645804     0.67835341     1.5748114      188.77021      107.49732      182.31347      91.467021     -128.024       -10.618511      43.266368     -267.62763     -248.0467       3699558.3    
    549000   300.14033      0.89465917     0.67798922     1.5726484      188.72836      107.48439      182.37285      84.100903     -162.33534      85.385055      19.542347     -286.46949     -348.90389      3699497.7    
    550000   300.17186      0.89475315     0.68042973     1.5751829      188.74628      107.48742      182.38809     -200.11106     -142.32675     -23.339902      103.61819     -97.394432     -267.11811      3700262.5    
    551000   299.50003      0.89275055     0.67802402     1.5707746      188.75672      107.48539      182.49725     -162.10841      140.02842     -81.287162      63.839718     -116.40527     -273.48266      3702611.9    
    552000   299.98336      0.89419126     0.67723937     1.5714306      188.69537      107.52309      182.46061      38.822971      155.80154     -89.444102     -123.50084     -70.777584     -110.20534      3701963.1    
    553000   300.44493      0.8955671      0.67858024     1.5741473      188.75245      107.5032       182.45133      210.34459      249.87299      52.429317      269.14791     -323.7619      -202.43562      3702209.8    
    554000   299.42681      0.89253229     0.67895455     1.5714868      188.73575      107.509        182.3654       165.25684     -240.10683     -117.44988      105.99198     -317.14751     -313.11079      3700338.3    
    555000   299.95842      0.89411691     0.67900161     1.5731185      188.68945      107.55492      182.47354      212.06914     -182.54425     -116.7548      -71.021594     -142.52495     -255.29945      3703205.3    
    556000   300.28452      0.89508895     0.67989906     1.574988       188.68573      107.49403      182.4842       54.79214       3.5490916     -64.683357     -38.518305     -358.44038     -247.26593      3701252.2    
    557000   299.45932      0.89262919     0.67787623     1.5705054      188.73832      107.50399      182.30935      49.65371       164.65803      229.22286      133.47973     -146.67339     -278.11696      3699078.9    
    558000   299.58416      0.89300132     0.67547178     1.5684731      188.78646      107.48817      182.37197      358.91426     -167.49324      9.5393154      109.91629     -235.40499     -251.11916      3700748.7    
    559000   299.81956      0.893703       0.67958049     1.5732835      188.80279      107.49669      182.37421      62.666179     -69.330096     -12.477322      95.211529     -199.7358      -150.19015      3701407.7    
    560000   299.63414      0.89315029     0.67848489     1.5716352      188.74305      107.52551      182.31444      78.153536     -315.39104      104.49268     -136.91153     -144.11471     -325.56484      3700015.6    
    561000   300.17545      0.89476385     0.67594481     1.5707087      188.7238       107.5279       182.37695      53.03572      -299.01786      48.170326     -159.01405     -222.05829     -274.03775      3700989      
    562000   299.7559       0.89351326     0.68017129     1.5736845      188.80043      107.51296      182.39602     -153.60191     -191.35238      39.260278      31.317209     -112.12844     -298.51952      3702364.5    
    563000   300.48786      0.89569507     0.68083267     1.5765277      188.65907      107.53676      182.47503     -27.552826     -216.32198      119.86594     -122.08204     -164.85108     -150.70147      3702014.4    
    564000   300.23697      0.89494721     0.6784428      1.57339        188.77655      107.46565      182.38643     -20.666927      211.32478      19.726234     -66.572068     -92.802502     -274.27734      3700072.5    
    565000   299.64014      0.8931682      0.67786294     1.5710311      188.77792      107.50578      182.36967     -348.76621     -176.95221     -119.93035      12.05923      -267.86057     -264.57986      3701141.1    
    566000   299.62285      0.89311666     0.67896772     1.5720844      188.85484      107.49403      182.29726     -28.155809      117.40301      222.04496      2.0591753     -260.89264     -104.49843      3700774.1    
    567000   299.95665      0.89411165     0.67847036     1.572582       188.64359      107.50371      182.2689       92.446972      356.41474     -110.65566      147.09216     -154.40656     -127.32667      3696392.5    
    568000   299.89164      0.89391787     0.67968751     1.5736054      188.68462      107.54412      182.32712      73.624433     -86.872552      110.77972      140.77006     -58.216588     -136.53048      3699767.6    
    569000   299.8908       0.89391535     0.68032156     1.5742369      188.7629       107.56074      182.16006     -100.71946     -252.33968     -14.955221      292.48235     -142.69387     -131.26902      3698482.9    
    570000   300.38779      0.89539678     0.67830539     1.5737022      188.75476      107.55401      182.3767       71.918442     -142.67304      37.711255      220.42126     -170.19007     -246.5339       3702490.1    
    571000   299.11811      0.89161213     0.68055488     1.572167       188.6794       107.54569      182.39899     -351.92132      119.89217      15.328692     -215.1182      -68.012697     -165.91991      3701177.5    
    572000   300.03683      0.89435066     0.67823615     1.5725868      188.69897      107.52037      182.38631      107.14188      24.292674     -119.20843      76.104457     -286.43782     -151.89204      3700432.7    
    573000   299.4783       0.89268576     0.6775662      1.570252       188.71248      107.54743      182.27306     -311.13598     -69.362622      161.29546     -61.282285     -77.767812     -373.64602      3699330.5    
    574000   300.1536       0.89469871     0.67932776     1.5740265      188.68501      107.54108      182.30153      71.533636      37.051233      33.699467     -3.8531389     -259.58507     -224.60982      3699151.3    
    575000   299.92448      0.89401574     0.67878081     1.5727966      188.66937      107.53148      182.38443     -207.14366     -75.880561     -59.488148      79.738448     -99.524641     -318.63165      3700196.2    
    576000   301.02796      0.89730501     0.67871849     1.5760235      188.69683      107.53484      182.45365      75.576361      19.272523      66.52389      -170.76545     -147.79496     -390.25013      3702255.2    
    577000   299.37375      0.89237412     0.67783544     1.5702096      188.65762      107.51094      182.30907     -367.78671      42.906347     -90.132357     -76.886902     -90.272815     -101.62966      3697730.7    
    578000   300.21831      0.89489161     0.68100716     1.5758988      188.72923      107.51436      182.2453       337.362       -40.688979      93.060176      31.151299     -280.43176     -249.38232      3697958      
    579000   300.05299      0.89439882     0.67935782     1.5737566      188.73995      107.53748      182.30098     -154.22969      97.13608       79.34602       15.212949     -262.74448     -162.05908      3700093.7    
    580000   299.1679       0.89176053     0.67846724     1.5702278      188.72785      107.49928      182.47873     -32.328695     -371.67552     -221.41488      61.407662     -183.50852     -268.86631      3702148.4    
    581000   299.76602      0.89354341     0.68066325     1.5742067      188.69156      107.53161      182.37927      31.117117      17.181685     -10.075208      131.24997     -256.29521     -241.11209      3700531.4    
    582000   300.06951      0.89444806     0.67849034     1.5729384      188.59179      107.46818      182.39265      454.20936      246.47171      319.58828     -117.83284     -160.29381     -328.98511      3696664.2    
    583000   300.5684       0.89593514     0.67760329     1.5735384      188.74918      107.5145       182.27003     -109.88701     -279.17124      81.373062     -220.08761     -198.77861     -173.84711      3698855.6    
    584000   300.50158      0.89573597     0.67983868     1.5755747      188.74592      107.50668      182.29529     -194.71993     -84.022995     -155.51842      22.192002     -231.71521     -178.896        3699035.5    
    585000   300.85071      0.89677667     0.67785877     1.5746354      188.70169      107.54355      182.46988      61.933378     -16.392985     -105.20272      76.971018     -120.6031      -171.65163      3702979.6    
    586000   299.98568      0.89419817     0.68003673     1.5742349      188.67298      107.52806      182.37476     -45.322845     -21.136277     -179.11499     -146.81646     -209.58686     -235.43922      3699953.6    
    587000   299.64488      0.89318232     0.68056644     1.5737488      188.74661      107.51633      182.36764     -86.82524       116.29816      11.708639     -7.5861561     -286.48031     -253.58956      3700849      
    588000   299.97518      0.89416688     0.67860935     1.5727762      188.62202      107.52361      182.27473     -185.47006     -15.707101      84.92933      -33.036234     -369.88373     -357.85265      3696772.1    
    589000   299.9485       0.89408734     0.67810991     1.5721972      188.74538      107.55265      182.27943      187.83707     -157.59738      257.3451      -142.21796     -188.73847     -214.72573      3700284.6    
    590000   299.98753      0.89420367     0.67961652     1.5738202      188.74783      107.56602      182.39081     -63.558646      68.702765      32.480017     -79.075988     -278.99179     -275.71758      3703053.9    
    591000   299.84055      0.89376558     0.67854139     1.572307       188.72956      107.53425      182.26928     -192.84792      45.62251       48.80779       154.75585     -377.73469     -236.72375      3699135.2    
    592000   300.41384      0.89547443     0.67959593     1.5750704      188.67937      107.52919      182.34985      131.96908      93.830181      188.45385     -3.1212603     -160.97355     -231.45895      3699612.3    
    593000   300.10338      0.89454901     0.67874014     1.5732891      188.76768      107.55661      182.45883      26.815073      67.484296      68.909368      92.500846     -152.92631     -275.77323      3704500.5    
    594000   300.32238      0.8952018      0.67798386     1.5731857      188.68645      107.56871      182.22192     -50.116427     -439.30322      67.455466      138.06765     -195.91961     -266.38922      3698514.3    
    595000   299.74418      0.89347831     0.67872286     1.5722012      188.64791      107.53928      182.26271     -251.22792      85.031784      46.781256      83.407596     -136.63899     -59.069932      3697574.5    
    596000   300.59566      0.8960164      0.6809458      1.5769622      188.70971      107.54192      182.34722      376.10075      261.19614      83.534203      109.51226     -199.88915     -209.83418      3700591.7    
    597000   299.71543      0.8933926      0.67830568     1.5716983      188.75297      107.55828      182.28125     -14.752801      393.6105      -32.714943     -214.10311     -155.58337     -303.59828      3700663.7    
    598000   300.18468      0.89479135     0.6793214      1.5741128      188.65469      107.59923      182.30138     -52.908811     -77.221677      190.07018      172.75467     -109.68342     -282.518        3700553.8    
    599000   299.57591      0.89297674     0.67645232     1.5694291      188.66464      107.59525      182.19245      72.831472     -152.59832      113.09093     -67.174124     -259.63449     -244.99239      3698400.9    
    600000   299.70632      0.89336547     0.67873259     1.5720981      188.61793      107.54965      182.33227      32.522767     -56.394607      138.69062      65.695965     -117.66672     -227.34149      3698754.4    
    601000   300.40395      0.89544497     0.67639555     1.5718405      188.64545      107.5448       182.24654     -88.584197      100.09365      57.906279      49.03462      -204.47637     -176.10944      3697388.4    
    602000   300.12592      0.89461621     0.67951715     1.5741334      188.68662      107.56952      182.43348     -356.19291      61.581295      94.039581      25.660744     -136.83731     -281.21233      3702839.3    
    603000   299.88645      0.89390239     0.67987229     1.5737747      188.71185      107.53747      182.47425      99.33401       205.97691     -25.389162     -105.78175     -22.945606     -189.81521      3703058.4    
    604000   300.21395      0.89487861     0.67756388     1.5724425      188.71152      107.51746      182.22651      166.48247      381.15188     -18.924574     -65.088683     -280.10423     -135.1799       3697336.3    
    605000   300.31618      0.89518333     0.67730293     1.5724863      188.74835      107.50226      182.37851     -45.444923      342.78559     -6.2630595      240.65188     -161.50559     -319.16685      3700619.3    
    606000   300.08814      0.89450357     0.68125938     1.575763       188.79052      107.5774       182.38931      224.56378     -225.3729       89.17277       10.39773      -295.0862      -132.79964      3704252.8    
    607000   300.15013      0.89468838     0.68023236     1.5749207      188.68592      107.57625      182.35061     -11.252479     -5.2313084     -33.196467     -228.74609     -106.67114     -284.25728      3701375.3    
    608000   300.16271      0.89472587     0.67734351     1.5720694      188.81432      107.52213      182.35602     -42.202467      7.3980452     -87.039302      9.4419176     -246.13515     -150.40718      3702140.4    
    609000   300.21553      0.8948833      0.67872677     1.5736101      188.73528      107.51267      182.37798     -157.06469      93.763265     -104.67696      70.482579     -273.76712     -263.68874      3700710.8    
    610000   299.84398      0.89377579     0.68154169     1.5753175      188.77406      107.51682      182.30672      149.87103      180.85215      106.6748       148.76527     -128.8527      -153.42888      3700167.5    
    611000   300.27056      0.89504733     0.68010182     1.5751492      188.74535      107.53409      182.26676      79.787722      218.91705      183.03581     -124.37215     -153.10598     -221.67435      3699388.2    
    612000   299.8241       0.89371653     0.67785066     1.5715672      188.71708      107.54033      182.32881      155.57643     -13.323408      30.674008      155.00285     -280.31571     -281.30833      3700307.9    
    613000   299.76887      0.8935519      0.68081302     1.5743649      188.64138      107.60754      182.38713      147.9983      -237.71538     -82.079944      56.312639     -189.10764     -250.28483      3702319.2    
    614000   300.14174      0.89466336     0.67964991     1.5743133      188.60263      107.55048      182.2661       57.486749      108.82931      78.080786      49.912908     -177.47212     -155.33534      3697140.8    
    615000   299.44598      0.89258943     0.6770379      1.5696273      188.72391      107.54019      182.37374      8.8574788      50.287854      24.640226      210.94597     -162.99131     -180.73465      3701348.9    
    616000   300.20969      0.89486591     0.68144994     1.5763158      188.72738      107.53102      182.3809      -225.30452     -462.33994      253.40749      93.099011     -244.74459     -339.64238      3701246.7    
    617000   299.56942      0.89295738     0.67786041     1.5708178      188.7301       107.50589      182.29213     -26.692229     -363.19953      66.816482     -51.407754     -206.98666     -290.71967      3698634.1    
    618000   300.11853      0.89459418     0.67948544     1.5740796      188.79562      107.50905      182.23864      281.5153       92.074981      101.55788     -199.83798     -31.998952     -288.83678      3698940.9    
    619000   300.0162       0.89428915     0.67800783     1.572297       188.71537      107.56235      182.40051     -303.93456      339.67346      45.375367      53.572341     -224.76614     -334.46205      3702487.5    
    620000   300.02648      0.89431979     0.6805596      1.5748794      188.64448      107.57053      182.35815      64.042825      154.16446      55.222585     -49.120406     -177.43021     -268.4921       3700518.3    
    621000   299.61877      0.89310449     0.67900305     1.5721075      188.63602      107.58566      182.32295     -154.3082      -206.38999     -36.335525     -14.265523     -179.40754     -326.69177      3700158.7    
    622000   300.2848       0.89508979     0.68096248     1.5760523      188.72848      107.5394       182.366        298.15273      376.48746     -100.94108     -44.581052     -231.56857     -137.34327      3701254.4    
    623000   300.15125      0.8946917      0.67940374     1.5740954      188.72097      107.59175      182.29264      146.76645     -271.32696      155.61859      145.13483     -153.31324     -269.91201      3701419.1    
    624000   299.60689      0.89306908     0.67915024     1.5722193      188.72682      107.57125      182.37099      74.345051     -64.882926      2.2085978     -95.187406     -132.81673     -201.43954      3702419.3    
    625000   300.32986      0.89522412     0.6803769      1.575601       188.71692      107.53836      182.39452      272.69182      276.12748     -124.75706     -57.746439     -168.03913     -237.92793      3701570.8    
    626000   300.37937      0.89537167     0.67786525     1.5732369      188.71963      107.55499      182.40283      22.180719      341.29962     -14.514193     -97.363491     -130.55688     -291.58921      3702364.9    
    627000   300.35921      0.89531159     0.67956865     1.5748802      188.69982      107.55804      182.37693      515.36995     -66.929419     -25.620524     -37.519952     -126.45269     -306.35817      3701555.5    
    628000   300.06042      0.89442097     0.67722068     1.5716416      188.73842      107.55237      182.33097      584.49505      434.05059      110.59549      10.988223     -138.20621     -288.72381      3701184.7    
    629000   299.79323      0.89362453     0.67889581     1.5725203      188.73856      107.54387      182.2552       48.614101     -93.2374       -6.4028601     -318.30929     -266.45233     -198.48744      3699356.8    
    630000   301.05915      0.89739799     0.67767266     1.5750706      188.70498      107.52969      182.39281      135.0594      -4.0111546      9.3965363      90.803906     -337.19256     -413.10121      3701003.1    
    631000   299.6624       0.89323453     0.67788165     1.5711162      188.71561      107.49937      182.43621      160.13615     -145.61869     -151.38772      3.790194      -234.27433     -269.29745      3701048.5    
    632000   299.8411       0.8937672      0.6779705      1.5717377      188.71387      107.49735      182.29935      151.15853     -46.758475      199.64525      18.232984     -174.76573     -334.44915      3698168.6    
    633000   299.92751      0.8940248      0.67731339     1.5713382      188.71391      107.55131      182.31491      147.1012       2.2330695     -12.000786      103.56701     -274.83989     -334.09694      3700341.6    
    634000   300.37907      0.8953708      0.67895337     1.5743242      188.8109       107.55959      182.35011     -4.5790512     -79.811789      61.153674     -295.61587     -139.44484     -323.04521      3703243      
    635000   299.8049       0.89365931     0.67753746     1.5711968      188.71241      107.52038      182.28837      222.779        339.15527      308.94409     -100.48953     -172.18595     -191.50137      3698709.3    
    636000   300.46702      0.89563295     0.67961635     1.5752493      188.72426      107.51048      182.3046       40.328259     -13.168068      67.478227     -73.166085     -185.13167     -221.76715      3698930.3    
    637000   300.76297      0.89651512     0.67676029     1.5732754      188.68189      107.52535      182.36137      43.581636     -65.394063      31.354564     -163.79413     -283.96792     -209.94998      3699763.3    
    638000   300.6886       0.89629343     0.67870423     1.5749977      188.76984      107.53743      182.53149     -353.0337      -209.1088      -134.3129       19.175388     -150.51054     -261.25378      3705357.2    
    639000   299.45598      0.89261926     0.679692       1.5723113      188.70502      107.54877      182.33868      307.60643     -113.34454     -97.895464      39.139173     -235.02514     -221.91866      3700562.2    
    640000   300.01216      0.8942771      0.67829228     1.5725694      188.73765      107.53612      182.31588      31.809805     -142.37054      251.84713      65.118173     -251.06107     -235.58829      3700303.9    
    641000   299.85185      0.89379925     0.67886354     1.5726628      188.69444      107.56311      182.31482      263.92265      0.15172647     154.2081      -125.80223     -127.87518     -276.65044      3700363.9    
    642000   300.34553      0.8952708      0.67868169     1.5739525      188.64201      107.49994      182.18028     -63.887875      67.263427      47.433131     -93.501785     -74.619013     -127.04555      3694434.8    
    643000   300.74847      0.89647189     0.67848693     1.5749588      188.72854      107.54121      182.36253      222.75412     -24.306437     -211.34112     -23.036422     -190.21892     -253.49621      3701247.4    
    644000   300.0306       0.89433208     0.67809778     1.5724299      188.69973      107.54463      182.38673     -421.69374     -79.901696      63.387437     -36.261698     -216.31684     -190.84252      3701291.2    
    645000   300.25852      0.89501146     0.6794348      1.5744463      188.79884      107.52083      182.30824      275.58146     -114.81837      75.155096      85.620119     -138.01639     -249.94528      3700822.2    
    646000   300.04925      0.89438765     0.6780826      1.5724703      188.76091      107.46894      182.35747     -132.14214     -97.906401     -152.91077      48.636344     -105.2309      -177.24265      3699292      
    647000   299.44831      0.89259638     0.67772219     1.5703186      188.76481      107.50331      182.3089       386.66909     -83.80121      -72.182722     -91.834781     -331.57346     -122.87973      3699565.8    
    648000   300.04343      0.89437032     0.67757695     1.5719473      188.80158      107.49627      182.31344      26.554956      66.930528      45.907697     -111.42082     -238.83056     -70.919123      3700136.2    
    649000   299.80258      0.89365238     0.67705015     1.5707025      188.86138      107.51501      182.28139      117.88723      8.6352621     -50.500197     -88.349251     -129.81517     -173.20183      3701302.6    
    650000   300.09435      0.89452211     0.67875808     1.5732802      188.78766      107.56147      182.2923      -423.58592     -106.18201      184.92665     -67.318383     -343.80448     -198.53168      3701678.2    
    651000   300.07081      0.89445192     0.67866152     1.5731134      188.68466      107.54116      182.26484      354.81855      257.73645      174.26183      18.15643      -275.10555     -360.28677      3698402.9    
    652000   300.15054      0.89468958     0.68094697     1.5756366      188.76514      107.53162      182.4589      -61.134848     -61.744681      90.115013     -7.0873249     -89.936512     -308.27142      3703591.1    
    653000   300.38972      0.89540253     0.67823803     1.5736406      188.76586      107.50993      182.31679      8.3315208     -83.529134      286.7408       58.114659     -93.129472     -231.06463      3699974.2    
    654000   299.43869      0.8925677      0.6783646      1.5709323      188.74315      107.53591      182.24543      78.032129     -2.4688619      144.52139      94.57374      -138.998       -151.63718      3698974.7    
    655000   300.84864      0.89677049     0.67974001     1.5765105      188.76371      107.54325      182.29866      109.2184       301.84967      183.65158     -180.36263     -112.44532     -426.37051      3700710.9    
    656000   300.21201      0.89487282     0.68013273     1.5750056      188.75036      107.57213      182.43112     -360.77681     -221.39824     -318.27308     -102.60136     -193.17137     -47.901257      3704132.2    
    657000   299.79829      0.89363959     0.6789029      1.5725425      188.72836      107.57035      182.3874       10.820977      24.097585      122.23628      72.348632     -148.47967     -187.22473      3702751.5    
    658000   299.58502      0.89300388     0.67996175     1.5729656      188.67204      107.57001      182.24693     -121.26935     -57.511578     -49.738776     -11.469631     -182.32526     -300.16555      3698784.1    
    659000   299.77115      0.89355869     0.67667327     1.570232       188.7754       107.50862      182.27573      140.12365      97.43738      -145.83668     -76.26304      -245.16153     -108.00843      3699282.9    
    660000   299.52342      0.89282027     0.67950601     1.5723263      188.77872      107.51047      182.31957      91.5559       -17.994929      172.24092     -0.64496045    -134.34337     -277.2592       3700301.4    
    661000   299.93424      0.89404484     0.67770083     1.5717457      188.76298      107.51479      182.26146      44.21269       52.829664     -21.441791     -51.066518     -15.306396     -227.65632      3698962.2    
    662000   300.10903      0.89456586     0.67679147     1.5713573      188.7786       107.55571      182.13707     -74.166727     -167.1649      -16.449181      14.979405     -4.5455357     -345.81478      3698150.5    
    663000   300.16706      0.89473884     0.67910968     1.5738485      188.75298      107.56052      182.29724      99.484933      174.07703     -166.96111     -162.07524     -108.06161     -145.33459      3701065.9    
    664000   300.40378      0.89544444     0.67811716     1.5735616      188.6744       107.55213      182.25516      75.701952     -289.12165     -24.493552     -57.447241     -156.1265      -195.9653       3698382.6    
    665000   300.23041      0.89492767     0.67882113     1.5737488      188.80522      107.55727      182.40191     -63.887559     -121.05607     -46.966795     -116.45865     -66.369539     -193.37648      3704103.7    
    666000   299.8506       0.89379554     0.68080645     1.574602       188.69101      107.54779      182.27419      68.377055     -468.70255     -53.667958     -66.412851     -126.73071     -237.32973      3698945.2    
    667000   299.97011      0.89415176     0.6787173      1.5728691      188.78046      107.58434      182.42126      164.04194     -169.71903     -192.43662     -40.357974     -181.66189     -170.8571       3704943.3    
    668000   300.11201      0.89457475     0.67993183     1.5745066      188.75113      107.57125      182.30046      27.161302     -118.15954     -97.686695     -271.15261     -93.07464      -149.44275      3701464.1    
    669000   299.81907      0.89370155     0.67747483     1.5711764      188.76057      107.53808      182.26421     -144.98976      77.337122      58.578831      109.53027     -188.87559     -116.93057      3699771.9    
    670000   299.98901      0.89420811     0.67696844     1.5711766      188.86548      107.52467      182.28031      190.89018     -15.170618      97.397887      23.547195     -260.04041     -221.74284      3701693.7    
    671000   299.98941      0.8942093      0.67894127     1.5731506      188.78004      107.56063      182.26003     -146.14002      55.88655       13.510913      129.94009     -174.15434     -42.209177      3700844.5    
    672000   299.61124      0.89308204     0.68021742     1.5732995      188.79726      107.52893      182.35747      320.52478      98.083155     -46.247395      98.439763     -167.1849      -190.72601      3702069.7    
    673000   300.07121      0.89445313     0.67791307     1.5723662      188.80532      107.50216      182.26691     -99.21419       54.753447     -0.45265755    -77.432005      1.7742279     -247.48423      3699467.9    
    674000   299.55161      0.8929043      0.67970095     1.5726052      188.81813      107.56346      182.26591      13.132557      171.75034      118.22272     -44.980019     -208.81202     -120.86177      3701807.9    
    675000   299.64755      0.89319028     0.67736937     1.5705597      188.8006       107.53664      182.30866      78.467242     -174.32179     -82.734389      128.9042      -133.07334     -264.70142      3701409.4    
    676000   299.55209      0.89290573     0.6789851      1.5718908      188.7459       107.52492      182.33465     -257.57447     -58.839607     -68.759344      208.41776     -140.41968     -225.63498      3700461.5    
    677000   300.75482      0.89649082     0.67714439     1.5736352      188.68453      107.58392      182.24452      4.2619438      253.25087      21.396336     -143.30341     -209.00328     -172.91295      3699458.3    
    678000   300.115        0.89458365     0.67778302     1.5723667      188.73485      107.56771      182.25769     -39.737974     -97.066348      25.398093      187.32512     -103.19779     -196.68906      3700154.7    
    679000   299.81616      0.89369287     0.6786173      1.5723102      188.76531      107.55146      182.25295      498.0021      -272.64836     -73.666945     -2.2656213      93.41175      -225.59652      3700096.5    
    680000   299.91009      0.89397286     0.67613895     1.5701118      188.67154      107.50485      182.16252      208.72728      60.656019      96.278208     -96.524394     -106.88364     -158.61689      3694821.6    
    681000   300.44962      0.89558108     0.67898526     1.5745663      188.7833       107.54255      182.16107     -46.567552      78.529613      0.8858626      101.18174      40.812946     -191.46356      3698277.3    
    682000   300.2543       0.89499889     0.67996063     1.5749595      188.75649      107.57608      182.30886     -54.374187     -211.60055      79.952826      141.96827     -134.79179     -198.83191      3701905.9    
    683000   299.45174      0.89260662     0.6808977      1.5735043      188.81169      107.52673      182.1467      -42.525628     -19.473833     -120.21574      151.60801     -144.1392      -226.13707      3697997.7    
    684000   300.03213      0.89433664     0.67862572     1.5729624      188.72553      107.52447      182.1741      -58.944877     -234.06131      219.60222     -49.867745     -180.13327     -206.92093      3696788.5    
    685000   300.04393      0.89437181     0.67825269     1.5726245      188.77681      107.50094      182.33051      218.69678      144.84769      51.738944     -103.2829      -73.127676     -304.06643      3700157.8    
    686000   300.09617      0.89452753     0.67776556     1.5722931      188.81359      107.56052      182.34883      2.6781763      341.30789      170.66969      61.926616     -196.99532     -66.169644      3703302.1    
    687000   300.3274       0.89521678     0.67693638     1.5721532      188.83093      107.55733      182.21141      63.972067     -145.36802      104.65703      98.045236     -129.98112     -165.9794       3700741.3    
    688000   300.28011      0.89507582     0.67725877     1.5723346      188.79864      107.52338      182.26633      320.43095      7.8544348     -69.351334      218.17098     -115.13195     -182.59352      3700055.2    
    689000   300.6623       0.89621506     0.67917076     1.5753858      188.70271      107.54504      182.15167     -74.279539     -154.22331      45.934835     -129.02972     -37.402321     -138.22298      3696593.2    
    690000   300.15201      0.89469396     0.67935353     1.5740475      188.67046      107.5906       182.16623      97.396555      32.070024     -16.515922      42.678974     -20.701567     -164.69042      3697822.7    
    691000   300.44697      0.89557319     0.67837926     1.5739524      188.74489      107.58736      182.23361      157.26856      387.0063      -158.04769     -9.8798915     -155.99894     -44.316942      3700538.6    
    692000   299.67051      0.89325873     0.67731013     1.5705689      188.82528      107.53609      182.24981     -215.67521     -153.17414      53.376601     -51.204396     -114.12334     -29.599716      3700679.3    
    693000   300.1226       0.8946063      0.67927153     1.5738778      188.74346      107.51527      182.2392       11.025661      96.451131     -112.17288      115.70466     -97.676192     -105.18003      3698144.5    
    694000   299.84945      0.8937921      0.67770386     1.571496       188.75151      107.57134      182.18107      60.207584      88.318331      133.58766      36.315214     -127.04505     -98.416883      3699050.3    
    695000   299.78232      0.893592       0.68189702     1.575489       188.80685      107.55412      182.22363     -3.0381827     -140.42024     -69.79303       30.089325     -108.49625      32.929219      3700407      
    696000   300.35512      0.89529939     0.67857035     1.5738697      188.78162      107.58101      182.23227      157.28606     -145.44577     -61.193166     -24.000687     -232.28399     -142.28262      3701013.1    
    697000   299.69298      0.89332569     0.67898473     1.5723104      188.73177      107.56498      182.0821      -350.71073     -216.51703      43.115223      48.160761     -165.34818     -20.653429      3696435.8    
    698000   299.84345      0.89377423     0.67915823     1.5729325      188.72555      107.57647      182.18943      187.40668      75.759784      40.10358      -97.094786     -52.715716     -200.62472      3698887.8    
    699000   300.01299      0.89427958     0.67578432     1.5700639      188.81104      107.57243      182.11109     -124.57426     -145.01379      79.613073     -272.095       -47.489567     -148.46172      3698833.2    
    700000   299.85151      0.89379823     0.67926499     1.5730632      188.73565      107.54316      182.21033     -121.27842     -368.55662     -157.17311      59.004272     -91.197429     -65.651669      3698364.5    
    701000   299.53823      0.8928644      0.67980739     1.5726718      188.74739      107.5544       182.2574      -91.579098      103.82913     -65.58579      -46.659803     -241.30648     -5.2583005      3699936.8    
    702000   299.74599      0.89348371     0.6773611      1.5708448      188.68352      107.56052      182.17648      134.0172      -273.21021      91.510637      57.325503     -87.672482     -171.14974      3697252.9    
    703000   299.70755      0.89336913     0.67808963     1.5714588      188.7002       107.58122      182.13343      224.97293     -6.8777095      46.906107      203.27385     -183.95748     -175.94103      3697417.8    
    704000   300.79072      0.89659785     0.6767422      1.5733401      188.79845      107.58227      182.10546      422.28632      159.81399      67.614794      154.56654     -167.55962     -306.17192      3698810.5    
    705000   299.58022      0.89298958     0.67821682     1.5712064      188.79503      107.56075      182.10696      30.413069     -100.65535     -91.90741      -78.139642     -111.01115     -183.79584      3698034.3    
    706000   300.45932      0.89561001     0.67901595     1.574626       188.81389      107.55889      182.19159      259.8775       295.63361      54.518078      29.02366      -219.75669     -99.725446      3700058.6    
    707000   299.95846      0.89411704     0.67658206     1.5706991      188.74203      107.54451      182.23003     -210.61073     -235.30005     -141.84372     -36.562521     -81.355575     -242.70982      3698936.2    
    708000   299.66443      0.89324058     0.67947736     1.5727179      188.81225      107.57175      182.23935     -148.42654     -59.103503     -165.37958      33.16095       57.242777     -148.58032      3701438.6    
    709000   300.22769      0.89491955     0.67999912     1.5749187      188.83538      107.61018      182.20955      133.67178     -61.581259      38.072256     -148.74335     -112.86171     -275.1182       3702609.2    
    710000   300.08344      0.89448959     0.67901474     1.5735043      188.69647      107.59304      182.16343     -216.26885     -302.10297      33.957076      111.15181     -88.779032     -60.688242      3698359.6    
    711000   300.73496      0.89643163     0.67809945     1.5745311      188.72081      107.58184      182.28854     -51.838489      146.9241      -34.243117     -25.167917     -76.132196     -134.60711      3700992      
    712000   299.61265      0.89308626     0.6778254      1.5709117      188.8317       107.57959      182.17948     -210.04729     -418.5966      -118.80271     -31.145986     -217.45885     -197.71756      3700873.4    
    713000   300.05876      0.89441602     0.67759587     1.5720119      188.73033      107.51102      182.15719      48.358586      379.57907      67.659218     -112.58597     -156.92014     -205.15291      3696076.9    
    714000   299.77846      0.89358049     0.67842783     1.5720083      188.82513      107.50802      182.16216     -100.06056     -30.29788       1.815709      -101.89928     -194.22807     -185.45823      3697931      
    715000   300.01511      0.89428589     0.6767672      1.5710531      188.75459      107.52891      182.13843      161.89695      106.18317     -158.33796     -39.994764     -149.51766     -176.0383       3696786.4    
    716000   300.24055      0.8949579      0.67821338     1.5731713      188.70237      107.57415      182.13253     -92.366947      288.02799      92.703257     -108.94359     -62.090879     -59.383077      3697198.7    
    717000   300.45844      0.89560738     0.67993072     1.5755381      188.79307      107.52333      182.15955      103.86578      99.704943      107.31974     -28.54939      -87.134231     -81.417888      3697776.7    
    718000   300.00388      0.89425243     0.67940695     1.5736594      188.74755      107.54249      182.18845     -127.77536     -13.692674     -34.151084      302.32733     -133.86736     -224.77766      3698130.6    
    719000   299.62999      0.89313794     0.67816971     1.5713076      188.74594      107.55358      182.0945       93.597292      178.69991      202.68149     -229.75962      154.79677     -33.137221      3696573.3    
    720000   300.09002      0.89450919     0.67779135     1.5723005      188.91546      107.56224      182.15849     -137.15224     -144.3416      -89.672704      1.9624837     -147.88552     -48.090297      3701491.4    
    721000   299.81408      0.89368665     0.6792686      1.5729552      188.78604      107.54884      182.27377     -19.721821      271.75903      189.72087     -25.028886     -103.44119     -262.20405      3700835.7    
    722000   300.17006      0.89474776     0.6790542      1.573802       188.73718      107.52366      182.14953      190.23035      516.43461      99.0557        3.3867745     -18.141477     -128.89018      3696490      
    723000   299.72717      0.89342762     0.67928755     1.5727152      188.69022      107.5511       182.1838       304.42194     -3.8533512      22.068948     -98.097835     -13.890819     -50.006104      3697209      
    724000   300.10549      0.89455531     0.67814688     1.5727022      188.72271      107.58874      182.26262     -280.49553      203.56533     -52.593743     -112.40228     -214.50955     -173.34566      3700740.3    
    725000   300.1525       0.89469544     0.67660449     1.5712999      188.70713      107.53902      182.15198      176.70026     -5.7196797      68.389938     -152.10581     -38.476987     -178.76206      3696479.1    
    726000   300.1556       0.89470466     0.6809275      1.5756322      188.83653      107.56068      182.26254     -78.17278       274.57032     -111.40076     -146.08257     -183.57274     -58.622148      3702004.6    
    727000   300.38484      0.895388       0.67902135     1.5744094      188.80106      107.54935      182.17076      186.10399      75.391282      96.950139      136.43998     -0.71864245    -153.52049      3699055.6    
    728000   300.16407      0.8947299      0.6772829      1.5720128      188.72271      107.52193      182.15255     -285.74511      205.72627     -9.3364919     -199.14535     -100.74308     -133.03216      3696208.4    
    729000   299.68792      0.8933106      0.67541167     1.5687223      188.80354      107.51446      182.15567      331.40827      240.66494      50.93516      -47.25901      -149.28511     -9.5083777      3697598.3    
    730000   299.37256      0.89237057     0.67854784     1.5709184      188.65207      107.56203      182.25738      141.93784      46.852212      151.79342     -35.635648     -183.54402     -94.881573      3698330.4    
    731000   300.39482      0.89541775     0.67472356     1.5701413      188.70857      107.58102      182.1644       67.102443     -140.21806      133.09346     -112.77345     -114.03106     -132.31533      3698203.4    
    732000   300.07528      0.89446526     0.67626812     1.5707334      188.7901       107.56142      182.11126     -346.5942      -253.31468      85.984166      199.60087     -82.474078     -24.60893       3698048.1    
    733000   300.53015      0.89582113     0.67709362     1.5729148      188.68879      107.52542      182.11017      340.70192      202.75195      123.1731      -37.443654     -79.358553     -208.91547      3694804.2    
    734000   299.59479      0.89303301     0.67678158     1.5698146      188.75372      107.55282      182.19807      172.93865     -60.557114      96.413278     -150.87849     -150.37628     -84.876194      3698802.2    
    735000   299.84151      0.89376844     0.67787064     1.5716391      188.67268      107.53395      182.17341      449.09754     -14.828485     -35.882677      26.503263      58.487543     -100.03724      3696065      
    736000   300.3678       0.8953372      0.68063883     1.575976       188.76164      107.5581       182.22768     -60.934646      16.550123      15.388309      244.07565     -72.248393     -147.6983       3699740      
    737000   300.09615      0.89452746     0.67577408     1.5703015      188.69454      107.55172      182.1325      -225.87844      48.241089      23.249025      215.21632     -120.23946     -93.406094      3696273.7    
    738000   300.01852      0.89429605     0.67957361     1.5738697      188.79787      107.52196      182.1747       2.1888506      330.19507      38.00748      -205.43643     -178.69571     -173.22507      3698131.4    
    739000   300.14258      0.89466586     0.68013533     1.5748012      188.79844      107.501        182.17259     -87.054972      390.86426      18.040795     -151.65007     -165.79048     -202.18687      3697378.9    
    740000   300.22032      0.8948976      0.68001191     1.5749095      188.70621      107.53813      182.17164      186.73306      34.582288      123.98489      244.65928     -102.42043     -52.448514      3696829.8    
    741000   300.3162       0.89518339     0.68001293     1.5751963      188.81789      107.54068      182.13859     -249.89303      16.739303     -21.432004      189.62912     -45.346245     -152.31171      3698433.9    
    742000   299.41173      0.89248734     0.67677881     1.5692661      188.89602      107.52173      182.04549     -252.91047      100.03962      110.16089      55.837806     -250.64589     -115.24528      3697421.5    
    743000   300.37076      0.89534602     0.6772252      1.5725712      188.82492      107.55466      182.1753      -91.218483     -74.755296     -47.054096     -150.61289     -141.3661      -87.69014       3699798.3    
    744000   300.05052      0.89439144     0.67713792     1.5715294      188.77821      107.51648      182.25509     -12.207444      44.829482      65.525061      17.255388     -17.809965     -173.63852      3699189.4    
    745000   299.53427      0.8928526      0.67655155     1.5694042      188.77308      107.53898      182.23296      112.05255      476.44326      150.87333     -40.92658      -183.64531     -133.30295      3699413.5    
    746000   300.00955      0.89426933     0.67787866     1.572148       188.768        107.56508      182.11902      6.32108       -11.047822      52.696691     -134.00669     -207.46942     -247.93297      3697898.4    
    747000   299.90914      0.89397001     0.67810221     1.5720722      188.65652      107.5571       182.14952     -185.18992     -302.91582      164.65729     -192.00575     -178.72603     -264.35149      3696059.3    
    748000   299.80356      0.89365532     0.67852158     1.5721769      188.81269      107.53663      182.27766     -221.78124     -175.46086      177.6554       70.196882     -81.181341     -291.38927      3701016.6    
    749000   300.15088      0.89469059     0.67678503     1.5714756      188.87025      107.55134      182.20222      90.928577     -173.05206      16.821514      122.04617     -82.996592     -165.69798      3701118.9    
    750000   299.75875      0.89352175     0.67898995     1.5725117      188.80798      107.53644      182.18654      57.307497      213.92631      70.889699     -108.50181     -18.687003     -205.52071      3699067.6    
    751000   300.20266      0.89484495     0.67914865     1.5739936      188.86388      107.53945      182.22181     -206.99805     -314.1669      -30.217416      73.632482     -131.68958     -194.95288      3700982.8    
    752000   300.05072      0.89439206     0.67839781     1.5727899      188.7564       107.49253      182.23697     -41.475436      399.90578      46.034697      150.19932     -59.72198      -246.59998      3697570.5    
    753000   299.85682      0.89381408     0.6785375      1.5723516      188.74825      107.54885      182.19686      214.58558      25.456069      77.305378     -262.62187     -57.56522      -256.12651      3698533.8    
    754000   300.60719      0.89605076     0.67804955     1.5741003      188.76156      107.54914      182.225        87.304854      104.87975      53.799451     -67.334006     -128.11267     -429.21973      3699375.7    
    755000   299.38377      0.89240399     0.676615       1.569019       188.80126      107.57119      182.13251      37.51615      -204.30282     -82.132256      149.77721     -138.27347     -111.06872      3699034      
    756000   300.05685      0.89441032     0.67918185     1.5735922      188.79447      107.59041      182.21295     -3.3723311      48.476237      102.11518     -140.60195     -56.305895     -61.180821      3701195.9    
    757000   300.18416      0.89478979     0.68054216     1.5753319      188.77831      107.59237      182.30302     -197.50764      107.02127     -96.044328      2.1514158     -60.368467     -195.14095      3702775.8    
    758000   300.17143      0.89475185     0.67796727     1.5727191      188.83827      107.54405      182.19485     -78.228634      226.14668      234.05922     -4.9128561      45.699255     -209.40173      3700091.8    
    759000   299.68565      0.89330384     0.67888699     1.5721908      188.74729      107.58688      182.21425     -121.45711     -80.469283      93.719992     -231.55288     -296.37347     -181.70778      3700175.9    
    760000   300.02975      0.89432954     0.67759611     1.5719256      188.74388      107.60351      182.33249     -45.753971     -79.661569     -95.674757      116.5929      -149.32291     -299.24605      3703082.4    
    761000   300.21141      0.89487103     0.67865674     1.5735278      188.79338      107.55672      182.14994     -215.77664     -163.79485     -22.159545      29.371722     -172.89022     -205.30162      3698736.3    
    762000   299.77643      0.89357443     0.67877325     1.5723477      188.75715      107.56617      182.26255      257.46565     -261.00487     -2.3455467     -228.71517     -198.84424     -189.57985      3700637.6    
    763000   300.35257      0.8952918      0.67969316     1.574985       188.80231      107.59189      182.16655      161.15326     -66.490364      182.2167       91.499996     -111.71964     -217.5616       3700457.7    
    764000   300.29226      0.89511202     0.67827361     1.5733856      188.73695      107.55778      182.19564      99.052433     -190.64725      56.077632      143.53974      35.543452     -221.60462      3698594.7    
    765000   300.45539      0.89559829     0.67881977     1.5744181      188.7933       107.55148      182.27145     -162.69237     -40.609168      187.97823      165.12814     -232.48841     -318.76873      3701021.6    
    766000   299.77976      0.89358438     0.67990437     1.5734888      188.83404      107.55213      182.11914     -643.60049     -265.71307     -88.586002     -108.42896     -220.07248     -217.96915      3698749.1    
    767000   300.03208      0.89433647     0.67778732     1.5721238      188.78303      107.53106      182.18667      137.8971      -87.567452     -36.345206     -97.784178     -2.7926703     -177.78317      3698396.6    
    768000   299.85776      0.89381687     0.67969229     1.5735092      188.70347      107.54707      182.3614       286.49815      493.24038     -95.008725     -84.156775      9.3406378     -202.02025      3700934.3    
    769000   299.77831      0.89358004     0.67802862     1.5716087      188.78197      107.52753      182.24862     -250.19367      158.8662       50.31219       54.804734     -63.363547     -341.82944      3699511.9    
    770000   300.11695      0.89458946     0.67747998     1.5720694      188.83312      107.54058      182.22056     -218.83258     -138.66458      70.955613     -49.606487     -273.10308     -256.47075      3700393.5    
    771000   299.81356      0.89368511     0.67799147     1.5716766      188.76725      107.51038      182.18403     -342.01467     -164.52261      31.165838     -89.345319     -56.551305     -280.3226       3697322.9    
    772000   300.51438      0.89577414     0.67952911     1.5753032      188.75028      107.49371      182.28643     -67.745958      98.657515      61.921522      87.771115     -124.57703     -244.54905      3698494.7    
    773000   299.46522      0.89264678     0.67982201     1.5724688      188.83935      107.56431      182.32681      94.26354      -154.97282     -92.944724     -69.125876     -188.62488     -217.44132      3703490.3    
    774000   299.83693      0.89375479     0.67856734     1.5723221      188.76574      107.58402      182.18855     -35.902844     -150.0472      -67.372533     -94.396812     -72.200579     -215.44334      3699917.3    
    775000   300.13193      0.89463413     0.67831786     1.572952       188.77528      107.564        182.25808     -113.19995     -241.13374      87.601633      244.6281      -184.14023     -293.3007       3700827.7    
    776000   300.65553      0.89619487     0.67661234     1.5728072      188.82496      107.5536       182.29455      333.08226      117.66288     -147.39669      26.304938     -141.76013     -138.0256       3702184.3    
    777000   300.70734      0.89634931     0.67932357     1.5756729      188.79463      107.53494      182.38126      252.97123     -188.25081     -78.460458     -252.83486     -102.33633     -133.0454       3702707.9    
    778000   299.84166      0.89376889     0.6796818      1.5734507      188.78962      107.56215      182.27195     -35.633864      140.76701     -14.496036     -148.19251     -92.358905     -280.96661      3701326.9    
    779000   299.54972      0.89289865     0.67953334     1.572432       188.85387      107.57274      182.22836      95.389172      0.17630355     48.627142      122.00718     -237.09944     -187.15114      3702065.1    
    780000   299.98634      0.89420013     0.68020446     1.5744046      188.79772      107.58595      182.23507     -24.333067      193.64783     -69.016683      62.892713     -104.6171      -110.10386      3701555.3    
    781000   300.51522      0.89577663     0.67867326     1.5744499      188.74642      107.5764       182.2037      -23.345758     -210.49743      100.72434      193.93847     -63.086396     -214.29137      3699584.2    
    782000   300.64724      0.89617015     0.68004072     1.5762109      188.71168      107.56493      182.28732      431.56971      116.84063      15.207254     -52.152136     -89.424484     -289.47684      3700206.3    
    783000   299.59743      0.89304088     0.682145       1.5751859      188.84784      107.55439      182.32602     -121.14818     -330.57418     -10.560706     -127.7557      -135.63203     -124.82667      3703299.4    
    784000   299.87647      0.89387265     0.67900374     1.5728764      188.8158       107.59286      182.2397      -98.931115     -8.3306903     -58.012591     -57.251763     -175.00735     -177.3048       3702241.7    
    785000   299.8346       0.89374785     0.67779334     1.5715412      188.77974      107.56234      182.28626      107.00763     -79.898838      139.29388     -165.65603     -168.55325     -155.66297      3701430.2    
    786000   300.52122      0.89579452     0.67933728     1.5751318      188.76774      107.53365      182.28804     -71.25826       105.01798      75.488625     -114.22303     -139.69833     -254.35077      3700244.1    
    787000   300.13867      0.89465419     0.68003653     1.5746907      188.81776      107.53922      182.23189     -67.36405      -410.60709     -165.31421      58.866281     -118.20843     -224.22481      3700275.8    
    788000   300.13547      0.89464467     0.67938736     1.574032       188.71165      107.53241      182.25339      267.15913      88.693442      27.761204      8.6052601     -346.49736     -220.17322      3698398.3    
    789000   300.10391      0.89455058     0.67801987     1.5725704      188.81196      107.48345      182.32936     -25.71753      -95.896836     -153.21449      60.823492     -170.35125     -520.26232      3700221.5    
    790000   299.70726      0.89336826     0.67969643     1.5730647      188.79537      107.52884      182.26379      181.24679      201.32931      3.7327262      115.18465     -141.57007     -326.05699      3700127.7    
    791000   300.58827      0.89599438     0.6787473      1.5747417      188.7799       107.58377      182.20996     -193.20647      140.7445       80.970536     -66.005212     -98.450548     -105.94143      3700621      
    792000   299.14589      0.89169493     0.6797922      1.5714871      188.86803      107.51311      182.29235     -212.63876      164.46         35.795645     -155.34297     -166.90609     -292.14416      3701590.2    
    793000   300.00583      0.89425823     0.67663762     1.5708958      188.75118      107.54111      182.24586     -245.39278     -0.099017798    100.07049     -58.381121     -144.39068     -242.39256      3699319.5    
    794000   299.5485       0.89289504     0.6811328      1.5740278      188.8285       107.56243      182.12104      117.87816      18.618747      79.800809      0.51589977    -104.91727     -141.32415      3699033.7    
    795000   300.38961      0.89540222     0.68012023     1.5755225      188.88473      107.56444      182.38567      5.5805071      351.52455      143.10911     -77.524807     -46.710509     -161.5691       3705580.7    
    796000   299.25829      0.89202996     0.67834207     1.570372       188.81939      107.56349      182.34695      386.92637     -62.91403      -92.646465     -43.814213     -111.58422     -238.38319      3703479.9    
    797000   299.71705      0.89339744     0.68041422     1.5738117      188.71824      107.55406      182.29705      151.41667     -18.103011     -99.413252      205.3868      -240.38093     -239.23241      3700158.6    
    798000   299.53892      0.89286646     0.67924573     1.5721122      188.83598      107.58022      182.29052     -70.124176     -158.10257     -83.19706      -49.961315     -77.325301     -208.97102      3703234.9    
    799000   300.04989      0.89438957     0.67897224     1.5733618      188.77099      107.53205      182.30284     -166.08722     -251.46178      48.613908      63.331614     -5.7314507     -233.707        3700552.6    
    800000   300.23713      0.89494768     0.67901721     1.5739649      188.85751      107.57198      182.24015      196.64916      435.28033     -87.354735     -194.44742     -82.195134     -134.08805      3702349.9    
    801000   300.29865      0.89513108     0.67982548     1.5749566      188.85442      107.54166      182.30044      152.48923     -163.7011       179.50049      186.90843     -135.61481     -112.28963      3702470.8    
    802000   299.76915      0.89355274     0.67841069     1.5719634      188.78145      107.51179      182.36287      271.53118      326.34999     -26.142165      65.181078     -164.47668     -192.58012      3701279.1    
    803000   300.27156      0.89505033     0.67897881     1.5740291      188.70425      107.60378      182.42015     -79.59607      -164.70768     -241.34578     -203.74206     -236.33656     -210.86876      3704094      
    804000   299.85764      0.8938165      0.67942054     1.573237       188.79342      107.57122      182.28203      214.58761      132.3477       156.99114      187.95208     -97.916467     -463.6076       3701918.1    
    805000   299.81535      0.89369046     0.67958082     1.5732713      188.70585      107.55818      182.20249     -185.12763     -58.766119     -74.421737     -19.355621     -49.941123     -233.31688      3698138.1    
    806000   300.7935       0.89660614     0.6834975      1.5801036      188.76838      107.58358      182.32977     -159.27375     -194.53202     -182.6314      -52.349781     -104.16478     -165.99415      3702822      
    807000   299.89126      0.89391674     0.67699912     1.5709159      188.71481      107.57256      182.23002      179.95507     -87.44464      -87.662407      132.49409     -165.15908     -318.6745       3699367      
    808000   300.33297      0.89523337     0.67839205     1.5736254      188.84081      107.53112      182.29478      182.41349      345.91955     -131.91666      13.743908     -234.12504     -223.53179      3701725.9    
    809000   299.75178      0.89350098     0.68024649     1.5737475      188.80137      107.55722      182.36456      55.333312      167.69336      122.44665      21.5816        118.92273     -95.64111       3703268      
    810000   299.66159      0.89323214     0.67796943     1.5712016      188.76878      107.55708      182.32368     -214.45039     -309.34937     -27.620177     -9.4765758     -189.17884     -54.025262      3701794.2    
    811000   299.61036      0.89307941     0.68091839     1.5739978      188.91993      107.50176      182.23775     -63.198744      273.67649      19.240891     -170.88935     -101.16601     -148.28988      3701107.6    
    812000   299.81342      0.8936847      0.679427       1.5731117      188.89846      107.535        182.33664     -260.86611      69.041187     -117.74638      20.813231     -179.38534     -49.299951      3703839.8    
    813000   300.02212      0.89430681     0.68019564     1.5745024      188.82799      107.49934      182.37092      56.880697      259.55679      44.57657       19.616446     -86.658523     -234.43726      3701925.9    
    814000   300.38281      0.89538194     0.6813755      1.5767574      188.76551      107.56234      182.30782     -21.115579     -298.73676     -45.225701     -12.923102      3.2481023     -298.45213      3701588.9    
    815000   300.26169      0.89502091     0.68014621     1.5751671      188.84912      107.56597      182.20889      189.81326      80.717301      202.11976     -18.27343      -181.94134     -61.811217      3701343.9    
    816000   300.10627      0.89455764     0.67912496     1.5736826      188.87266      107.55384      182.37849      207.2301       45.068917     -11.162679      15.830628     -238.1853      -249.36655      3704833.1    
    817000   299.35605      0.89232138     0.68140711     1.5737285      188.77328      107.5206       182.41104     -306.34487      145.23517     -335.15673      229.24076     -70.369349     -393.47271      3702399.9    
    818000   299.30942      0.89218239     0.67921237     1.5713948      188.76954      107.56861      182.23046     -48.555537      39.689281      21.101168     -31.379642     -233.25141     -271.18127      3700312.6    
    819000   300.10464      0.89455276     0.67867872     1.5732315      188.79571      107.54512      182.31059     -62.332266      365.7649       95.268523      106.09404     -167.43571     -275.06291      3701644.5    
    820000   299.98989      0.89421073     0.67764646     1.5718572      188.84503      107.53674      182.25647      391.16364      287.68385      273.9383       92.689402      69.079431     -329.06084      3701224.4    
    821000   299.35554      0.89231986     0.67901861     1.5713385      188.89593      107.53875      182.39319     -117.77553     -216.12362     -36.997139     -233.43117     -6.2690041     -298.22402      3705067.9    
    822000   300.11082      0.8945712      0.6803867      1.5749579      188.85264      107.55835      182.39721      29.300779      136.59919     -22.570862      33.036847     -168.17173     -270.03214      3704975.9    
    823000   300.01476      0.89428485     0.67697077     1.5712556      188.82414      107.50323      182.26114      144.88816      213.07015      116.03621      8.6167328     -129.88588     -340.8771       3699756.4    
    824000   300.03479      0.89434457     0.6796093      1.5739539      188.82696      107.49296      182.23559     -101.24218      88.896772     -9.6835873     -144.24749     -188.52884     -193.17405      3698939.4    
    825000   298.76365      0.89055554     0.68039372     1.5709493      188.83051      107.5207       182.35745     -44.925223      59.885327      92.712847      77.12622      -210.19911     -146.47722      3702437.8    
    826000   299.64513      0.89318306     0.67936972     1.5725528      188.72321      107.52516      182.40632      100.3065      -61.761259     -83.465818      40.987524     -198.11359     -96.978532      3701479.2    
    827000   299.14469      0.89169134     0.67926345     1.5709548      188.76676      107.58434      182.27752      109.42898     -374.11311     -150.57262     -76.60889      -134.75024     -209.91492      3701755.3    
    828000   299.64412      0.89318004     0.67875719     1.5719372      188.73169      107.57112      182.28688     -61.548872     -113.37212     -153.16049     -46.75469      -153.78829     -137.16299      3700802.7    
    829000   299.72563      0.89342303     0.67929183     1.5727149      188.81223      107.52692      182.31072      377.29534      173.28566      237.00141     -96.564064     -19.176535     -291.86778      3701345      
    830000   300.09028      0.89450998     0.68036516     1.5748751      188.72694      107.52108      182.44046      265.16296      2.7877983      110.75354     -68.475669     -220.86193     -260.62512      3702104.6    
    831000   300.29899      0.8951321      0.67930475     1.5744368      188.74062      107.52062      182.50095      190.53375      74.410706     -126.62396     -143.33999     -76.777613     -224.09589      3703584.5    
    832000   299.82037      0.89370541     0.67750315     1.5712086      188.72813      107.52573      182.36401      133.98997     -121.96254     -12.447714      161.47158     -125.9069      -166.54333      3700736.7    
    833000   299.84687      0.89378442     0.6781609      1.5719453      188.75765      107.52783      182.34878      9.7265303     -114.57303      37.092138     -9.0401777     -157.56472     -270.90216      3701078.5    
    834000   299.75142      0.89349989     0.68200648     1.5755064      188.81786      107.5653       182.46375     -211.07838     -89.282369      69.634613     -135.14109     -146.37235     -236.7387       3705884.6    
    835000   299.61285      0.89308685     0.6803169      1.5734038      188.90884      107.52965      182.37978     -78.096124      332.32208     -18.56977      -134.47075     -215.52493     -148.04894      3704735.4    
    836000   300.20575      0.89485415     0.680246       1.5751001      188.95946      107.52492      182.32127     -17.777733      32.217741      100.03519     -161.49295     -179.53233     -283.02914      3704376.4    
    837000   299.99471      0.8942251      0.67967126     1.5738964      188.87542      107.5413       182.32631     -97.658232      7.7413375      30.661457     -107.23193     -193.88321     -309.52946      3703395.4    
    838000   299.92694      0.89402309     0.68026626     1.5742893      188.86802      107.52185      182.39359      4.598441       227.64291      61.739882      145.57833     -140.52224     -285.56737      3703946.6    
    839000   300.62643      0.89610813     0.68006523     1.5761734      188.90293      107.47804      182.32573      68.877721      201.76546      8.862603       0.10971584    -88.462036     -345.94599      3701744.2    
    840000   299.90757      0.89396535     0.6788366      1.572802       188.75942      107.51341      182.41326      345.19445      400.8573       11.823644     -160.67802     -246.59202     -181.93057      3701925.4    
    841000   299.15424      0.89171982     0.67961374     1.5713336      188.87526      107.52285      182.2179       128.15033      288.33425      92.491714     -133.3017      -204.58373     -136.7877       3700555      
    842000   300.74898      0.89647341     0.67898026     1.5754537      188.80657      107.5647       182.24387      120.37099     -154.25593      89.731695     -11.710496     -245.31193     -395.27923      3701176.5    
    843000   300.2496       0.89498486     0.67905069     1.5740355      188.7755       107.54689      182.39584      193.2632       150.4058      -55.322101     -233.67788     -172.17405     -274.07118      3703040      
    844000   300.88067      0.89686597     0.68259774     1.5794637      188.86394      107.53782      182.37019      235.6405       155.31407      26.289415      111.6425      -84.809877     -238.67925      3703941.6    
    845000   300.5415       0.89585498     0.68007276     1.5759277      188.79964      107.49306      182.34353      202.41945     -38.888453      183.90617     -179.61079     -41.174012     -318.38091      3700598.4    
    846000   299.98665      0.89420107     0.68010911     1.5743102      188.80427      107.54722      182.29571      369.63259      18.595557      8.9456077      23.325807     -34.464285     -243.04838      3701582.5    
    847000   299.51685      0.89280067     0.68097129     1.573772       188.81173      107.47213      182.35804      146.18041      315.12436      41.296433     -118.65344      1.2498441     -179.30679      3700409.2    
    848000   299.58776      0.89301205     0.6793192      1.5723313      188.82183      107.56326      182.47868      248.96159      96.00238      -171.24374      108.98997     -151.65732     -253.35159      3706195.2    
    849000   299.62827      0.89313282     0.68037906     1.5735119      188.79163      107.53993      182.43286      96.008424      195.43994      41.361259      10.442337     -78.914048     -287.44757      3703868.6    
    850000   300.07211      0.8944558      0.6816755      1.5761313      188.87674      107.54447      182.32955      125.14369     -64.207057     -43.177782     -123.6068      -116.11569     -233.96337      3703596.1    
    851000   299.95639      0.89411085     0.68180621     1.5759171      188.84098      107.56884      182.41755      334.65211     -157.94623      158.71803      255.36884     -218.44421     -278.99358      3705521.5    
    852000   299.51127      0.89278406     0.680961       1.5737451      188.79686      107.52265      182.36278      2.9560319      142.25898     -135.18014      222.01475     -69.892323     -271.81671      3701953.2    
    853000   299.89443      0.89392619     0.6808126      1.5747388      188.79436      107.55235      182.43059     -27.882828      134.13783     -147.67606      323.98178     -167.2411      -363.77771      3704303.5    
    854000   300.36029      0.89531483     0.67926917     1.574584       188.84478      107.54569      182.43756     -16.969722     -81.030047     -189.05264     -218.42642     -247.9038      -129.00288      3705205.1    
    855000   300.15222      0.89469458     0.68048217     1.5751768      188.83431      107.54894      182.40922      336.68533      133.89898      199.17377      66.716117     -56.65799      -349.17975      3704536.1    
    856000   300.11184      0.89457422     0.68162065     1.5761949      188.89322      107.52887      182.39427     -86.59368      -292.2921      -28.191198     -46.698826     -263.26562     -345.40768      3704696.7    
    857000   299.52204      0.89281616     0.67951565     1.5723318      188.84815      107.55815      182.31273     -178.93526      102.59424     -195.24791     -134.75163     -147.064       -389.99633      3703164.9    
    858000   299.98114      0.89418464     0.68097647     1.5751611      188.81397      107.5264       182.44834     -52.823704      38.391811     -162.29235     -124.39333     -19.905912     -283.42434      3704154.8    
    859000   300.36116      0.89531742     0.67818125     1.5734987      188.88366      107.47604      182.51988      30.151269      95.691023      290.07013      14.058644     -183.12086     -210.64404      3705238.8    
    860000   300.21526      0.8948825      0.67933701     1.5742195      188.79874      107.50539      182.335        10.527518     -204.19636     -22.507548     -146.66568     -130.71079     -302.69199      3700832.2    
    861000   299.60622      0.89306708     0.67996582     1.5730329      188.82398      107.52594      182.42079      122.41198      11.511888     -107.80446      158.43922     -146.40569     -275.66462      3703776.2    
    862000   299.97044      0.89415276     0.67988244     1.5740352      188.69664      107.47027      182.46805      130.67574     -257.06899      29.337321      189.40434     -177.7576      -325.58345      3700320.4    
    863000   299.49869      0.89274657     0.68039861     1.5731452      188.9346       107.54145      182.28667      70.342337      3.4625551      244.75693      18.527978     -249.0751      -217.91134      3703755.4    
    864000   300.60473      0.89604345     0.67953889     1.5755823      188.79668      107.52062      182.43015      3.8142877      121.1307      -211.14703     -3.9871761     -56.326942     -275.1806       3703247.5    
    865000   299.7699       0.89355499     0.67954428     1.5730993      188.81304      107.56067      182.49547      218.98432     -123.0878       20.646458     -137.7419      -33.739637     -279.20159      3706274.5    
    866000   300.1824       0.89478454     0.68107381     1.5758584      188.79552      107.53708      182.46158     -503.7056       272.21353      132.88098     -110.73309     -65.21853      -314.84754      3704429.7    
    867000   299.98991      0.89421079     0.68178797     1.5759988      188.77823      107.51733      182.34081      18.926898      181.57882      53.37816      -126.4826      -172.66299     -248.68955      3700958.9    
    868000   300.64465      0.89616242     0.6814944      1.5776568      188.87987      107.54006      182.35641     -105.56921      74.708019     -116.04135      188.30798      38.124678     -265.01299      3704051.1    
    869000   300.25464      0.8949999      0.68044106     1.575441       188.79711      107.56364      182.23399      335.47096     -37.944581      147.05894      42.032769     -238.14973     -158.79608      3700754.2    
    870000   300.22474      0.89491076     0.68038269     1.5752935      188.887        107.51395      182.33678      99.665801      259.33807     -63.383825      164.59111     -117.71904     -318.22699      3702893.1    
    871000   299.93796      0.89405593     0.6786433      1.5726992      188.88641      107.49099      182.39412      123.54749      199.27571      20.880759     -22.150632     -124.01507     -222.57143      3703254.7    
    872000   299.99886      0.89423747     0.68105516     1.5752926      188.88788      107.54611      182.4093      -72.601383     -88.889601      33.135139     -15.815696     -67.429939     -231.7009       3705490.9    
    873000   299.91767      0.89399546     0.67874243     1.5727379      188.83856      107.54983      182.42566      31.353036      159.89375     -17.316808     -0.22045542    -37.672439     -251.095        3704984      
    874000   300.13024      0.89462907     0.67866398     1.5732931      188.8425       107.51777      182.30857     -42.92397       43.938971      71.043064      122.36797     -100.44304     -282.51087      3701579.3    
    875000   300.12741      0.89462063     0.68000047     1.5746211      188.88273      107.54672      182.2895      -75.032334     -68.273248      225.9152       122.51768     -87.602875     -304.97836      3702977.7    
    876000   300.55805      0.89590428     0.68104623     1.5769505      188.76128      107.54343      182.35859     -150.37012     -99.623958      100.16456      29.315379     -288.72912     -432.91488      3701885.9    
    877000   300.45353      0.89559273     0.68104175     1.5766345      188.86259      107.51169      182.35673     -315.28935     -145.99852     -244.29517      18.629768     -322.38091     -338.58933      3702741.7    
    878000   298.84798      0.89080693     0.67982619     1.5706331      188.71459      107.53115      182.4214       53.681148     -31.142636      215.53098     -240.03268     -200.76009     -162.90275      3701822.3    
    879000   299.77829      0.89357998     0.67942646     1.5730064      188.88107      107.54849      182.25438      169.08364      229.93229      61.179043     -83.162072     -59.978134     -207.54085      3702292.4    
    880000   299.89065      0.89391491     0.67976305     1.573678       188.9212       107.53825      182.36354     -26.630997      106.50993      113.98491      63.409366     -155.82143     -436.6062       3704944.2    
    881000   299.99643      0.89423021     0.68056464     1.5747949      188.79125      107.52657      182.39317     -55.291725     -32.07857       88.993304      25.020583     -201.09971     -291.43354      3702595      
    882000   300.0704       0.89445071     0.67941073     1.5738614      188.87584      107.53735      182.2873      -219.71068     -77.61392      -122.92645      19.774993     -201.51314     -297.40287      3702475.3    
    883000   299.92587      0.89401989     0.6816603      1.5756802      188.85387      107.55333      182.31627     -53.559683     -247.95984      211.12545      288.40373     -54.963197     -205.52511      3703183.2    
    884000   300.05288      0.89439849     0.67919805     1.5735965      188.85521      107.53937      182.32096     -11.475137      96.463731     -136.33748      33.358778     -208.51504     -187.82988      3702823.9    
    885000   300.47387      0.89565336     0.67893855     1.5745919      188.91782      107.53499      182.38981     -373.95414     -100.11084     -51.022528     -199.68689     -161.86712     -222.28733      3705299.4    
    886000   299.95584      0.89410923     0.6781191      1.5722283      188.68746      107.51787      182.33608      110.11236      182.07555      4.0106054      115.4369      -185.26839     -193.70593      3699101.9    
    887000   299.36939      0.89236115     0.68083801     1.5731992      188.87223      107.50067      182.24449      58.436594      95.072349     -119.25613     -9.1989653     -137.04238     -344.08296      3700272.2    
    888000   299.79465      0.89362874     0.68156085     1.5751896      188.85219      107.52408      182.39277      166.53317     -9.0796616      18.052459      132.0613      -75.352381     -155.04559      3703696.5    
    889000   299.99759      0.89423369     0.67992438     1.5741581      188.83421      107.52119      182.39166     -113.46064     -254.30848      164.46838      47.914333     -83.286229     -363.35618      3703221.9    
    890000   300.33266      0.89523245     0.68052692     1.5757594      188.76159      107.62121      182.40913      107.31587     -274.60561      4.9364417     -124.02572      8.4132137     -213.45302      3705596.1    
    891000   300.04057      0.8943618      0.68024186     1.5746037      188.84162      107.58309      182.41244      165.78778      216.88959      157.4638      -52.994694     -140.81632     -367.55284      3705921.1    
    892000   299.94657      0.89408159     0.68252498     1.5766066      188.74387      107.54908      182.44582     -72.398158      70.319016     -165.37691      151.96349     -24.358731     -113.4311       3703509.6    
    893000   299.91573      0.89398965     0.6799591      1.5739488      188.83398      107.49623      182.42628      87.140914      55.503211      105.6197       39.977793     -70.049019     -399.08048      3703060.3    
    894000   299.56874      0.89295535     0.67858648     1.5715418      188.81818      107.53093      182.39567     -115.30757     -149.41834     -93.032552      71.435025     -124.27249     -201.02579      3703324.1    
    895000   300.36901      0.89534079     0.68020427     1.5755451      188.83672      107.52783      182.52151      202.97484     -366.26272     -142.61351     -122.94529     -50.812649     -272.83927      3706136.3    
    896000   300.20885      0.89486339     0.67926941     1.5741328      188.85777      107.48912      182.40202     -98.568516     -64.942292      37.110648     -150.86647     -139.52677     -338.42189      3702789.3    
    897000   300.32479      0.89520901     0.67985403     1.575063       188.79928      107.52498      182.4051      -101.02369      167.95325     -80.352209      2.1068078     -145.64479     -288.55062      3702940.1    
    898000   299.87774      0.89387643     0.67815709     1.5720335      188.81014      107.506        182.2813       136.21117     -12.990892      24.032361     -46.565896     -145.2553      -208.68946      3699986.3    
    899000   299.77915      0.89358255     0.67886346     1.572446       188.84414      107.5209       182.37653     -60.576511      50.14848      -257.32182     -97.441833     -38.078687     -395.48413      3703099.2    
    900000   300.13924      0.89465591     0.68125476     1.5759107      188.8334       107.54587      182.46817      73.026922     -32.45578       1.5884833      272.53141     -51.555148     -186.58236      3705609.4    
    901000   300.44378      0.89556367     0.67740732     1.572971       188.81646      107.51058      182.26976      298.70677      218.5544       21.092985      75.104348     -222.08435     -302.32388      3700033.8    
    902000   299.12533      0.89163364     0.68078183     1.5724155      188.96871      107.55214      182.35485      65.567422      133.36134     -5.979826      -168.34481     -130.52818     -240.12316      3706178      
    903000   300.11929      0.89459643     0.6800194      1.5746158      188.8042       107.5266       182.339       -17.495949      10.795257      27.352673      128.06026     -129.25613     -105.61394      3701750.6    
    904000   299.94339      0.89407211     0.68022348     1.5742956      188.76844      107.52295      182.45644      6.9806076      236.1306      -147.33511      3.2521131     -101.94169     -205.29399      3703307.1    
    905000   299.47376      0.89267224     0.68079722     1.5734695      188.858        107.5468       182.41615      40.111504     -165.31038     -217.83244      279.70996     -73.339382     -245.21448      3705067.8    
    906000   300.45933      0.89561002     0.68083429     1.5764443      188.89537      107.5423       182.37486      33.902162      99.978031     -69.370936     -178.97629     -130.63439     -72.87754       3704807.3    
    907000   299.11499      0.89160282     0.68062153     1.5722243      188.94066      107.52229      182.35576     -60.88454       14.68277       90.490335     -218.8114      -32.297773     -321.06522      3704617.7    
    908000   299.57         0.89295911     0.67982262     1.5727817      188.87284      107.50878      182.41691      79.938219      293.52816      105.95851      107.27357     -27.390437     -374.90486      3704064.5    
    909000   299.74022      0.8934665      0.68070955     1.574176       188.84307      107.53897      182.36009      67.649674      61.557224     -7.1038349     -180.61227     -95.275107     -315.00625      3703366.8    
    910000   300.44129      0.89555625     0.6815944      1.5771506      188.88942      107.56878      182.43175     -230.83271     -224.86594      51.621242      282.77946     -48.122032     -312.98538      3706758.6    
    911000   299.37518      0.8923784      0.68143211     1.5738105      188.86571      107.53394      182.448        365.91988      184.71429      266.31987     -99.585815     -98.817489     -263.61374      3705422.9    
    912000   299.62441      0.8931213      0.67741159     1.5705329      188.80853      107.46643      182.30339      179.94907      87.807071      119.88597     -193.3565      -239.69422     -247.02049      3699041.3    
    913000   300.39277      0.89541164     0.68069705     1.5761087      188.87948      107.53843      182.45084      201.64325     -142.08782     -153.41475      60.458082     -158.89368     -355.23705      3705905.5    
    914000   299.53075      0.8928421      0.67892932     1.5717714      188.79586      107.52289      182.44875      21.058178      114.06035     -76.959187      62.834884     -117.64503     -293.69645      3703687.1    
    915000   300.29336      0.89511531     0.6798546      1.5749699      188.95394      107.4942       182.45453      195.73786      184.52865     -15.447372      85.791709     -175.19103     -66.526685      3705916.5    
    916000   299.76208      0.89353168     0.6811609      1.5746926      188.92335      107.47673      182.44129     -225.00066      296.66875      21.755423      55.829879     -176.92689     -269.21124      3704445.4    
    917000   299.68305      0.89329609     0.67987614     1.5731722      188.88512      107.54417      182.4599       82.139181     -241.00692      61.543778     -46.791599     -84.490887     -112.33253      3706397.9    
    918000   299.88524      0.89389879     0.67955742     1.5734562      188.82693      107.54198      182.3409      -37.29307      -43.972709      136.55344     -174.62244     -186.57972     -143.96594      3702764.3    
    919000   300.57602      0.89595785     0.68030014     1.576258       188.88933      107.52561      182.31721     -25.14155      -159.62757      107.72748     -317.40054     -153.72121     -273.90166      3702942.9    
    920000   299.50784      0.89277383     0.67982735     1.5726012      188.83513      107.54657      182.32428     -175.79063     -49.995094      166.30809      111.8033      -178.28649     -343.98267      3702745.7    
    921000   300.30299      0.89514403     0.68085926     1.5760033      188.85046      107.53851      182.33419     -322.99046     -16.982934     -129.17254     -135.15678     -139.5842      -315.46352      3702969.9    
    922000   299.46667      0.89265111     0.68088229     1.5735334      188.87363      107.51392      182.28611      37.924486     -309.65814      58.81676       157.9458      -233.70479     -206.21664      3701601      
    923000   299.43514      0.89255712     0.67971226     1.5722694      188.79587      107.54095      182.35985      81.115326      97.896209      36.121987     -45.453421     -141.89983     -260.92802      3702504.3    
    924000   299.83549      0.8937505      0.68032218     1.5740727      188.73429      107.53697      182.39481      150.25836      52.984391      56.753966     -143.49223     -144.73874     -369.62317      3701869.2    
    925000   299.72512      0.89342151     0.68085881     1.5742803      188.77091      107.52952      182.37793      64.573829      13.969247     -42.085012      163.14152     -36.702649     -173.71942      3701988.3    
    926000   299.6786       0.89328283     0.68179969     1.5750825      188.77321      107.51122      182.47013      53.993831     -106.879       -307.54963     -17.608008     -95.974918     -209.19732      3703274.6    
    927000   300.34417      0.89526677     0.68051399     1.5757808      188.85846      107.54447      182.35265     -56.506063     -161.44111      113.90676     -137.69305     -97.396652     -170.58633      3703707      
    928000   299.70539      0.8933627      0.68070067     1.5740634      188.87628      107.50694      182.42654     -55.487851      168.86462     -22.903121     -140.08257     -112.78104     -104.29788      3704264.2    
    929000   299.91577      0.89398979     0.6811902      1.57518        189.00543      107.51273      182.31674     -119.21846      25.059085     -41.876091     -126.18886     -131.01125     -241.81975      3704765.4    
    930000   300.0889       0.89450587     0.67944996     1.5739558      188.73325      107.55222      182.30382      183.37811     -351.01059     -18.108159     -106.30402     -300.68355     -169.4986       3700526.9    
    931000   299.706        0.89336451     0.67993306     1.5732976      188.88731      107.54011      182.43069      107.99245     -55.601323      62.944409      22.429818     -247.42912     -310.42713      3705707.5    
    932000   299.35267      0.8923113      0.67838264     1.5706939      188.84404      107.5329       182.37009     -6.278352      -35.864149     -68.057409     -13.362501     -127.87981     -334.04435      3703379.8    
    933000   300.13455      0.89464191     0.68029711     1.574939       188.84603      107.56498      182.37521      65.775273     -35.16851      -91.724263      57.189558     -124.71899     -185.13623      3704627.7    
    934000   299.53325      0.89284958     0.67780438     1.570654       188.83171      107.56012      182.243       -66.66834      -144.81166      67.494579     -289.90278     -98.421091     -299.33211      3701494      
    935000   299.71393      0.89338814     0.67884374     1.5722319      188.86539      107.56819      182.44205     -368.60345     -114.91037     -119.68031      21.554004     -173.40361     -101.43954      3706475.8    
    936000   299.84774      0.89378699     0.68021163     1.5739986      188.75041      107.55931      182.31924     -133.25637     -28.882175     -0.21738851     56.46076       56.674403     -204.01036      3701420.4    
    937000   299.71184      0.8933819      0.67956724     1.5729491      188.87185      107.52689      182.37208      150.10535      476.12954      56.119585      138.14034     -146.55959     -278.91216      3703758.6    
    938000   299.84895      0.89379062     0.6800544      1.573845       188.84277      107.48686      182.43023     -70.666278     -44.424658     -167.56758      168.50486     -138.87716     -219.54006      3702989.9    
    939000   299.26107      0.89203826     0.67973374     1.571772       188.80789      107.58193      182.40219      82.742743     -136.35865     -206.96721      188.1957      -168.23553     -160.77714      3705011.2    
    940000   299.41134      0.89248618     0.68113994     1.5736261      188.79777      107.55691      182.45031     -25.633654     -163.456       -31.570961      71.268775     -271.0181      -227.9322       3704928.1    
    941000   300.255        0.89500098     0.6797725      1.5747735      188.76375      107.53837      182.51508     -229.3683      -112.43242     -102.90451      72.641958     -195.94289     -235.24854      3704936.8    
    942000   299.25668      0.89202516     0.68125037     1.5732755      188.88044      107.52554      182.31948      41.201561      149.55447      196.30359     -59.589128     -39.446102     -341.18119      3702812.3    
    943000   299.80849      0.89367        0.68072926     1.5743993      188.86168      107.57526      182.29098      19.867187     -95.713665      18.176037      107.28855     -124.74117     -166.80173      3703577.6    
    944000   300.05357      0.89440055     0.68195312     1.5763537      188.75116      107.54834      182.44232      274.8791       182.16108     -2.0014246     -135.82959     -55.104385     -97.997125      3703555.9    
    945000   300.91806      0.8969774      0.68175974     1.5787371      188.7971       107.55576      182.53967      98.864058     -146.35407     -208.95719      72.683392     -58.589929     -321.52138      3706689.8    
    946000   300.18781      0.89480068     0.68098116     1.5757818      188.87301      107.54294      182.41612      229.97204      233.34965      171.87163      247.80507     -102.48288     -223.62827      3705228.7    
    947000   299.44222      0.89257821     0.67857421     1.5711524      188.89282      107.57759      182.28726      55.444185     -343.99996     -75.983677     -114.8454      -101.32266     -272.36232      3704192.8    
    948000   300.03502      0.89434525     0.67890412     1.5732494      188.78008      107.57536      182.28367      284.59639     -100.29871      61.191452      51.502603     -67.053915     -167.02481      3701832.2    
    949000   299.58804      0.89301289     0.67949388     1.5725068      188.8294       107.56303      182.36805      130.86101     -156.46965     -173.01696      96.724528     -182.33897     -211.59965      3704089      
    950000   299.92121      0.89400599     0.68130633     1.5753123      188.82472      107.53394      182.4858       63.891563     -8.2967207      74.960735     -204.82123     -207.08477     -379.84169      3705386.5    
    951000   300.75981      0.89650571     0.68007509     1.5765808      188.93441      107.53472      182.3984      -109.76041      13.058023     -73.096995      165.12589     -75.67956      -261.65507      3705790.1    
    952000   299.98598      0.89419906     0.68020948     1.5744085      188.86858      107.49627      182.37048      131.11113      371.58513      177.44744     -54.652039     -204.73447     -213.22228      3702607.2    
    953000   300.40915      0.89546047     0.68023837     1.5756988      188.77315      107.53818      182.32722     -232.40218      30.79302       392.43854     -180.34548     -81.385307     -279.98702      3701301.2    
    954000   299.88486      0.89389764     0.67802085     1.5719185      188.76677      107.56871      182.27939      451.97271     -23.120355      72.151431     -187.29032     -163.64143     -142.78916      3701255.5    
    955000   300.98737      0.89718401     0.68067658     1.5778606      188.8393       107.59168      182.49841     -567.39285     -364.68282      5.2720907      63.595678     -5.2267897     -257.29962      3707918.3    
    956000   299.57039      0.89296028     0.68126291     1.5742232      188.92615      107.54244      182.4834      -29.323423     -95.054217     -149.21391      84.44777      -89.681114     -351.34018      3707620.8    
    957000   300.27272      0.89505377     0.68164924     1.576703       188.88018      107.54688      182.40743      56.902693     -232.50973     -30.670856      150.69758     -220.85446     -287.0297       3705328.6    
    958000   299.47533      0.89267692     0.67950618     1.5721831      188.80969      107.52245      182.50228      133.50617     -157.56194     -52.360237      103.81134     -69.268372     -211.70577      3705029.8    
    959000   300.21561      0.89488354     0.68067699     1.5755605      188.87532      107.51739      182.45258      39.021015     -356.41378     -95.662317     -11.626273     -65.548145     -280.3959       3705134.4    
    960000   300.113        0.89457768     0.68078359     1.5753613      188.82235      107.53462      182.42388     -42.075938      336.9696       313.30427      160.92413     -41.852655     -339.34199      3704106      
    961000   300.11987      0.89459816     0.68241389     1.5770121      188.83826      107.52354      182.37195      134.93627     -166.14661      2.7220164      4.3560224     -199.08216     -169.07362      3702981.9    
    962000   300.22895      0.89492332     0.67950852     1.5744318      188.78856      107.53767      182.42291      107.5911      -48.322168     -17.56087       158.92262     -283.26472     -189.06089      3703528.5    
    963000   300.20153      0.89484159     0.68078833     1.5756299      188.79234      107.50156      182.4045      -199.45913      142.1721      -159.19201     -17.770509      15.375471     -310.64414      3701985.4    
    964000   300.64976      0.89617766     0.67782447     1.5740021      188.87177      107.55174      182.3148       54.312095      71.812092      138.17066     -90.637751     -290.45016     -188.7671       3703449.2    
    965000   300.20445      0.89485027     0.68140565     1.5762559      188.91537      107.50067      182.37077      157.46707      223.12119      172.5631       43.378269     -110.36006     -331.07537      3703681.9    
    966000   300.08131      0.89448322     0.68015489     1.5746381      188.79719      107.52501      182.44006      32.612724      27.580614      134.91089     -125.339       -119.52102     -223.12305      3703609.8    
    967000   299.88107      0.89388636     0.68061581     1.5745022      188.84722      107.51616      182.42883      158.17787      364.97671     -142.66776      28.045857     -67.203602     -310.24248      3704058.3    
    968000   300.42929      0.89552048     0.67999476     1.5755152      188.92562      107.5217       182.39562     -315.78375      64.661883     -236.00164      95.819901     -163.26145     -191.61606      3705112.2    
    969000   299.67338      0.89326728     0.68074159     1.5740089      188.80912      107.48233      182.4689       110.67994     -20.047802     -71.90988       75.826824     -62.917537     -200.23141      3702958.8    
    970000   299.82219      0.89371086     0.68251492     1.5762258      188.79051      107.54671      182.46661     -217.8509      -219.70233     -81.04576      -155.61357     -27.827241     -321.40447      3704765.3    
    971000   300.31773      0.89518793     0.67800516     1.5731931      188.86198      107.53446      182.33397      59.305728     -36.617809      37.350258      100.43643     -237.94251     -163.30357      3703051.7    
    972000   299.96721      0.89414313     0.6804301      1.5745732      188.88793      107.51114      182.47526      113.93046      114.36239     -31.165869      198.22765     -220.46688     -207.80709      3705626.8    
    973000   299.74713      0.8934871      0.68009815     1.5735853      188.85273      107.50971      182.51724     -12.251392      235.14611     -10.654164      24.981576     -58.656604     -248.36098      3705739      
    974000   300.02704      0.89432146     0.68043833     1.5747598      188.83131      107.55422      182.48356      48.062372     -98.741803     -19.761188      37.834755     -176.3629      -269.16163      3706168.9    
    975000   299.73387      0.89344757     0.68229259     1.5757402      188.91814      107.55973      182.39001     -137.11933      22.996782      22.506668     -106.19981     -80.381205     -209.55602      3706162.3    
    976000   299.7225       0.89341368     0.68210948     1.5755232      188.9194       107.47821      182.48375     -168.40454      185.12592     -277.25418      141.24143     -83.459264     -184.99391      3705281.1    
    977000   299.99638      0.89423007     0.6805573      1.5747874      188.9084       107.47758      182.44465     -164.01372      257.2924       76.080333      59.368687     -302.57254     -288.37311      3704249.8    
    978000   299.81558      0.89369115     0.6806173      1.5743084      188.83466      107.57046      182.4588      -460.37048     -140.00507     -167.25549     -27.32297      -405.02124     -318.33648      3706291.4    
    979000   300.68213      0.89627416     0.68216384     1.578438       188.84872      107.53043      182.57722     -72.246718     -336.28662      19.848601      2.6421351     -225.49461     -207.63868      3707592.9    
    980000   299.97131      0.89415534     0.68154799     1.5757033      188.82224      107.529        182.47063      88.895269      75.652943      20.199987     -18.803521     -205.76752     -309.36698      3704859.1    
    981000   299.02999      0.89134946     0.68287343     1.5742229      188.82066      107.55129      182.40904      100.05858      261.43506      92.655801      150.87868      3.3408531     -165.6937       3704345.6    
    982000   299.87477      0.89386758     0.68033971     1.5742073      188.87831      107.51701      182.42529     -78.082695     -140.78415     -113.64807      181.13115     -219.85847     -225.44723      3704625.5    
    983000   299.97022      0.8941521      0.68157915     1.5757312      188.8535       107.51014      182.46607      101.97518     -33.506987     -30.991133     -18.952471     -46.558042     -371.25064      3704730.2    
    984000   300.45616      0.89560059     0.67945568     1.5750563      188.87134      107.54937      182.39365      324.55711     -2.1037166      147.53921     -72.248158     -103.85014     -252.01075      3704961      
    985000   299.63741      0.89316006     0.68026965     1.5734297      188.93898      107.56615      182.45251     -60.253678     -132.15057      92.003019      22.839263     -171.24613     -282.98023      3708062.6    
    986000   300.48235      0.89567866     0.68018143     1.5758601      188.82235      107.52928      182.35314      116.97542     -194.46113      100.72047      189.42882      27.499025     -207.72335      3702485.7    
    987000   299.99806      0.89423507     0.68142491     1.57566        188.84047      107.52772      182.42044      166.24247     -36.748567      32.4226        103.54797     -117.97913     -100.39435      3704153.5    
    988000   300.25057      0.89498776     0.68406292     1.5790507      188.94284      107.45804      182.51079     -325.12643      171.96218      117.12089      171.80396     -124.65746     -316.82881      3705594.7    
    989000   300.06623      0.89443828     0.67990708     1.5743454      188.83399      107.54363      182.50269      51.48361       89.314635     -55.634191      101.12124     -216.86768     -289.36578      3706245      
    990000   299.955        0.89410671     0.68536557     1.5794723      188.82297      107.52211      182.41829      54.089821      144.74126      82.751098     -130.4579      -116.54587     -401.2617       3703573.4    
    991000   299.33326      0.89225345     0.68135427     1.5736077      188.78053      107.57598      182.42227      123.92803      25.10478       106.13824     -38.227994     -85.274003     -324.24249      3704677.2    
    992000   300.47345      0.89565211     0.67981458     1.5754667      188.84724      107.55171      182.41035      123.43914      63.702764     -211.42806      102.11126     -180.10839     -384.6885       3704908.1    
    993000   299.89966      0.89394176     0.68161373     1.5755555      188.8419       107.53721      182.5481       110.72176     -146.59374      55.130348      71.037991     -257.25454     -239.63416      3707101.6    
    994000   299.56095      0.89293213     0.68114269     1.5740748      188.99936      107.53537      182.50259      311.45316      43.55465       91.934627      36.487881     -132.48652     -270.98774      3709203.7    
    995000   300.22028      0.89489748     0.68095336     1.5758508      188.83623      107.50822      182.4378       80.756558     -150.72613      270.69578      19.22794      -162.37076     -218.16938      3703751.4    
    996000   299.88617      0.89390156     0.68419712     1.5780987      188.89324      107.53112      182.60553      88.707739     -100.11839      17.419072     -91.510291     -234.26495     -448.64136      3709065.6    
    997000   300.13468      0.8946423      0.6818486      1.5764909      188.89556      107.51672      182.54889      78.252707      3.5521333      54.567668     -52.437353     -290.93781     -185.03252      3707464.2    
    998000   300.01499      0.89428553     0.68167219     1.5759577      188.89243      107.47655      182.45389     -65.526739      49.930982      127.5535      -52.825125     -179.56554     -240.73844      3704088.9    
    999000   299.92551      0.89401882     0.67873259     1.5727514      188.91211      107.47577      182.35124      32.192153     -97.591714      184.3397      -92.432748     -121.63099     -237.06811      3702363.7    
   1000000   299.85997      0.89382345     0.68376303     1.5775865      188.84517      107.49411      182.55326     -151.82936      88.669043     -33.526971     -89.754692     -171.01569     -358.19226      3705784.4    
   1001000   300.02911      0.89432763     0.68031079     1.5746384      188.7929       107.52573      182.53699      348.47349     -166.52494     -171.36168     -4.2139152     -108.7654      -185.59338      3705518.2    
   1002000   300.20895      0.89486371     0.68414943     1.5790131      188.93864      107.54271      182.55525      491.28602      235.3967       143.4471      -55.844425     -136.54059     -229.49222      3709335.5    
   1003000   300.17807      0.89477165     0.68262672     1.5773984      188.82746      107.51543      182.54354      202.16594      165.6339      -19.973667     -99.720588     -229.95001     -203.2994       3705974.3    
   1004000   300.33543      0.89524071     0.68147724     1.5767179      188.94094      107.52533      182.42791      70.481657     -250.71994      83.536626     -129.26702     -129.82116     -264.13497      3706194.1    
   1005000   300.08426      0.89449201     0.68001781     1.5745098      188.89501      107.52923      182.5487      -14.904965     -23.569067     -29.883876     -114.76051     -92.126839     -316.32974      3707880.9    
   1006000   300.61202      0.89606517     0.68203327     1.5780984      188.82228      107.50631      182.58553      25.001717      81.781311     -186.77501      86.185546     -99.900347     -300.97825      3706410.8    
   1007000   300.29698      0.8951261      0.67952087     1.574647       188.89317      107.50411      182.53562      219.29132      68.160553      197.0081      -60.8273       -43.293923     -268.8954       3706713.1    
   1008000   299.84605      0.89378195     0.67982602     1.573608       188.87764      107.54153      182.49123     -295.82466     -105.83515      26.075888     -58.5097       -78.775279     -320.646        3706796.6    
   1009000   300.40711      0.89545436     0.68122973     1.5766841      188.90604      107.51746      182.51154      314.87035      83.357976      34.342973      12.472893     -202.10215     -189.34863      3706936.8    
   1010000   300.41722      0.89548451     0.6800129      1.5754974      188.8972       107.50715      182.57964     -561.42851     -23.214466      127.18394      258.0768      -250.11441     -320.03224      3707790.6    
   1011000   300.48586      0.89568911     0.6804027      1.5760918      188.89911      107.57969      182.62843     -2.9143844     -380.13068      48.002151     -121.98056     -278.03714     -480.43792      3711321.5    
   1012000   299.66106      0.89323056     0.68268155     1.5759121      188.81698      107.55643      182.57755     -507.47217      93.615392     -37.766842      51.951054     -280.82673     -223.52636      3707872.7    
   1013000   299.87129      0.8938572      0.68156305     1.5754202      188.94734      107.55361      182.51776      26.402655      213.77077     -3.8087019      23.698937     -85.218345     -321.69738      3709120.1    
   1014000   299.96728      0.89414333     0.68187556     1.5760189      188.89126      107.54292      182.63348      62.015001      93.933211      85.958057      4.0876546     -141.88053     -146.87521      3710001.5    
   1015000   300.50692      0.8957519      0.68335869     1.5791106      188.98176      107.54583      182.63499     -132.95385      114.34938      14.49606       136.4876      -220.09733     -302.70379      3711910      
   1016000   300.45297      0.89559107     0.68091796     1.576509       188.94284      107.50036      182.54218      155.16297      169.15288      148.97652      63.500187     -163.86345     -389.29271      3707691.6    
   1017000   300.46076      0.89561429     0.68234281     1.5779571      188.8938       107.54155      182.51169      38.486593      82.381559     -71.358538      99.056855     -36.360604     -260.15342      3707530.1    
   1018000   299.82639      0.89372337     0.68263442     1.5763578      188.88787      107.54818      182.66742      178.32646     -99.369203     -21.468102      111.72453     -225.00034     -296.37246      3710805.9    
   1019000   299.99775      0.89423416     0.68109218     1.5753263      189.00689      107.545        182.65461     -23.071781     -13.33513      -64.709954     -7.9154231     -147.32807     -423.55106      3712773.7    
   1020000   299.61494      0.89309307     0.68293695     1.57603        188.87105      107.53128      182.5345      -30.210893     -188.91528      186.90164     -112.67456     -155.21645     -240.96159      3707192.7    
   1021000   300.5057       0.89574825     0.68167182     1.5774201      188.87974      107.57132      182.53518      14.300197     -89.666106      179.84551      117.57397     -208.7439      -460.77121      3708757.8    
   1022000   300.17149      0.89475204     0.68189692     1.576649       188.89725      107.51306      182.62323      224.17847     -1.594942       0.4690046     -78.91959      -84.701064     -471.13607      3708881.1    
   1023000   299.91715      0.89399389     0.6814412      1.5754351      188.84109      107.56069      182.55727      69.112537     -107.41624      116.60504      24.038495     -136.77184     -387.44531      3708081.1    
   1024000   299.80505      0.89365974     0.68413788     1.5777976      188.75819      107.60841      182.65665     -18.910854     -557.83188     -225.5757       17.661773     -56.855338     -343.58242      3710116.1    
   1025000   299.95887      0.89411825     0.6819252      1.5760435      188.90267      107.53302      182.49943     -215.55493     -141.35068     -51.066131      45.924515     -133.49349     -171.40684      3707160.9    
   1026000   299.46822      0.89265574     0.68184586     1.5745016      188.94745      107.51942      182.52255     -39.66982       217.14088      15.514533      57.070208     -225.64432     -165.13361      3708040.6    
   1027000   299.8202       0.89370491     0.68195286     1.5756578      188.99038      107.52556      182.56022      120.60779      105.73036     -165.60343     -38.107767     -38.593638     -197.30537      3709860      
   1028000   300.08617      0.89449771     0.68161774     1.5761154      188.95178      107.52637      182.58227     -128.52787      189.14677      22.877017     -48.878897     -174.96517     -336.67149      3709578.7    
   1029000   300.19362      0.89481801     0.68369276     1.5785108      188.91039      107.53066      182.55706      191.36604     -101.2792       30.241139     -65.002859     -93.269417     -326.66812      3708401.6    
   1030000   299.6586       0.89322322     0.6816775      1.5749007      188.9027       107.50946      182.60459     -5.225737       177.94553     -196.2412       216.37385     -315.65295     -328.75279      3708485      
   1031000   300.78291      0.89657455     0.68167077     1.5782453      188.82307      107.51103      182.64122      47.125666      105.91296     -155.87113      103.23722     -84.184335     -322.07979      3707719.5    
   1032000   300.68434      0.89628073     0.68324921     1.5795299      188.89533      107.57069      182.60185     -11.44045       139.09317     -16.282357      31.329369     -301.20971     -353.03515      3710396.7    
   1033000   300.33666      0.89524438     0.68225041     1.5774948      188.94573      107.5008       182.53704      304.3577       190.67413      27.069632      26.706391     -157.65669     -414.77866      3707659.1    
   1034000   300.47131      0.89564575     0.68089913     1.5765449      188.97353      107.53268      182.53063      21.475918     -74.536883     -21.769398     -115.66297     -289.69258     -345.1247       3709174      
   1035000   299.71106      0.89337957     0.68207046     1.57545        189.04357      107.54519      182.61676     -559.5456      -361.84914     -38.692274      14.121169     -111.89726     -290.29491      3712731.4    
   1036000   300.00378      0.89425211     0.68123886     1.575491       188.9955       107.52504      182.65142     -105.45374     -82.154707     -41.756106     -301.86609     -34.129206     -214.79351      3711796.5    
   1037000   300.28503      0.89509049     0.68189154     1.576982       188.85499      107.54094      182.60347      317.93539      118.35684      49.838166     -59.242697     -185.12013     -340.00837      3708611.4    
   1038000   300.58063      0.89597161     0.68393701     1.5799086      188.92728      107.50865      182.7832      -255.01684     -119.3175      -210.57209      204.77564     -66.017261     -336.65918      3712567.7    
   1039000   299.66857      0.89325292     0.68194746     1.5752004      188.82974      107.52989      182.66703      20.555147      432.8896      -59.590419     -78.367048     -163.30036     -238.41173      3709025.1    
   1040000   300.18158      0.8947821      0.68296774     1.5777498      188.88739      107.52211      182.55224     -71.12074      -58.548565      85.314572     -104.61321     -124.03167     -386.74951      3707557.6    
   1041000   299.64322      0.89317738     0.68291396     1.5760913      188.99553      107.55399      182.62794     -138.46408      50.814308     -7.8123104      28.447369     -125.25526     -340.41936      3712319      
   1042000   299.43232      0.89254871     0.68211209     1.5746608      188.95598      107.5163       182.71952      136.09164      335.92902     -69.721746     -41.838122     -77.64673      -374.09517      3712101.9    
   1043000   300.0695       0.89444802     0.67871916     1.5731672      188.88819      107.50351      182.59394     -72.437262      78.723245      173.03622      210.91658     -72.921319     -362.15136      3707778.9    
   1044000   300.50001      0.8957313      0.68219522     1.5779265      188.85441      107.48051      182.60624     -27.575084      185.57314     -139.16571     -109.82381     -109.12823     -384.52082      3706572      
   1045000   298.83135      0.89075734     0.68094445     1.5717018      188.9396       107.50013      182.6294      -93.516963      97.676632     -84.751651     -87.157357     -97.859711     -231.1379       3709391.3    
   1046000   300.24113      0.89495962     0.68260805     1.5775677      188.91911      107.51116      182.64177      16.493161     -72.942894     -118.22387     -60.563418     -115.50435     -104.87868      3709621.1    
   1047000   300.30525      0.89515075     0.68394676     1.5790975      188.9107       107.51326      182.66899     -108.55882      85.800751     -155.44544     -132.67791     -325.68737     -394.90374      3710081.5    
   1048000   300.43305      0.8955317      0.6823906      1.5779223      188.86593      107.50283      182.73632      279.94623      210.46385      87.846122      61.918075     -97.454437     -309.19273      3710209.3    
   1049000   299.99168      0.89421606     0.68328322     1.5774993      188.81997      107.53876      182.61045     -294.12286     -165.89354     -5.3011957     -53.144742     -202.39871     -210.48744      3707990.2    
   1050000   299.30153      0.89215884     0.68053183     1.5726907      188.87076      107.51654      182.63202      5.3670946      23.099717      86.87842       76.277906     -330.49274     -278.55226      3708659.1    
   1051000   299.55282      0.89290791     0.68213447     1.5750424      188.96685      107.55791      182.71335      36.625718     -66.037708     -146.82225      20.783849     -242.94632     -272.75173      3713626.9    
   1052000   300.41604      0.89548098     0.68328461     1.5787656      189.03648      107.52562      182.63422      141.81971     -111.26563      182.59815     -87.149467     -235.65079     -326.3605       3712271.7    
   1053000   299.71603      0.89339441     0.68444641     1.5778408      189.07888      107.52179      182.55627     -90.172171     -70.213692      139.45842      143.13568     -99.728405     -238.26414      3711387.3    
   1054000   299.74781      0.89348913     0.68413402     1.5776232      188.97024      107.53683      182.67975      318.61108      104.19347      217.35894      164.34702     -151.71919     -150.06966      3712282.7    
   1055000   299.91287      0.89398113     0.68249233     1.5764735      188.9682       107.52674      182.65441     -15.01167      -119.78088      26.805189     -299.27603     -191.19763     -362.55431      3711379.3    
   1056000   299.6648       0.8932417      0.68143162     1.5746733      188.8384       107.52231      182.65192      5.518558       99.32822      -102.31561     -67.570446     -395.99571     -153.49092      3708626.7    
   1057000   300.77095      0.8965389      0.68145575     1.5779946      188.87615      107.53313      182.68879      239.05722      183.45144     -97.866187      7.6870353     -189.35383     -342.84079      3710490.2    
   1058000   300.24066      0.89495821     0.68181456     1.5767728      188.99285      107.52268      182.62263      483.90891      79.283538      174.911       -30.650096     -179.10515     -265.56419      3711077.7    
   1059000   300.86107      0.89680754     0.68460044     1.581408       188.97011      107.56237      182.67349     -63.267783     -165.56404     -156.13957     -15.355957     -212.06913     -212.45143      3713034.9    
   1060000   300.167        0.89473866     0.68112163     1.5758603      188.94923      107.52424      182.64981     -176.71534      9.548758       26.344572      249.56879     -91.73658      -341.23637      3710826.9    
   1061000   300.66004      0.8962083      0.68207872     1.578287       188.97031      107.53702      182.5307      -161.84768     -299.84495     -178.9476      -57.716032     -160.90985     -222.07388      3709261.9    
   1062000   300.16514      0.89473312     0.68226256     1.5769957      188.90391      107.55403      182.59039      255.44924     -37.645741      198.56103     -100.16995     -218.05111     -257.33767      3709757.8    
   1063000   299.91982      0.89400187     0.68052627     1.5745281      188.84364      107.54721      182.66048      104.65358      74.296985      36.265616      46.921487     -92.07642      -264.07975      3709762.6    
   1064000   299.82054      0.89370594     0.6824853      1.5761912      188.90284      107.53765      182.63918     -164.02401     -70.401143      2.4185505      96.082265     -35.31281      -437.58547      3710163.1    
   1065000   300.0438       0.89437141     0.68308023     1.5774516      189.03122      107.49983      182.7495      -52.133493      8.9587176     -94.562105     -89.062016     -54.222629     -393.98663      3713620.5    
   1066000   299.74454      0.89347938     0.68215304     1.5756324      189.01424      107.54572      182.59034     -204.46396     -194.34677     -103.02332      148.47816     -195.83333     -241.78622      3711636.7    
   1067000   299.74642      0.893485       0.68382776     1.5773128      188.91556      107.52472      182.59488      95.53384       115.1224       98.4869       -89.691883     -213.87154     -284.16377      3709066.7    
   1068000   300.18638      0.89479643     0.68286186     1.5776583      188.92895      107.5028       182.73181      85.360879     -151.54003     -64.569041      23.890027     -214.33385     -298.92627      3711354.5    
   1069000   300.10605      0.89455698     0.68229466     1.5768516      188.93484      107.46324      182.72967      132.75038      86.18524       108.98594      19.918634     -226.8257      -333.85971      3710061.1    
   1070000   299.73121      0.89343966     0.68222834     1.575668       188.90245      107.4944       182.5514       75.934982      207.48781     -47.230805     -142.63431     -169.46727     -357.32391      3706880.5    
   1071000   300.71796      0.89638096     0.68543711     1.5818181      188.9484       107.50225      182.73854     -392.33638      239.83589      61.607934      167.024       -165.4683      -377.18082      3711854.6    
   1072000   299.60292      0.89305724     0.68248403     1.5755413      189.03182      107.5085       182.72562      305.68717     -8.175254       67.491934      141.5608      -232.87372     -239.40438      3713446.3    
   1073000   299.92449      0.89401578     0.68357012     1.5775859      189.01605      107.49634      182.68603      263.06154      119.09504      104.9111      -28.156262     -180.33735     -280.45139      3711912.3    
   1074000   300.01696      0.8942914      0.68465961     1.578951       188.94307      107.49619      182.78484      149.84948     -126.72047      46.725695     -91.924611     -14.252824     -399.91146      3712481      
   1075000   300.28226      0.89508222     0.68358055     1.5786628      188.95632      107.50231      182.8322       17.921719      106.91439     -28.43849      -185.43325     -170.10289     -298.77164      3713914.4    
   1076000   299.7538       0.893507       0.68261592     1.5761229      188.99378      107.48015      182.61056      9.3281775      168.5263       95.165992      106.33655     -319.32859     -349.80447      3709382.9    
   1077000   299.93955      0.89406066     0.68160282     1.5756635      188.88471      107.5311       182.63451      85.183968     -104.59228      61.277013     -15.020672     -104.24262     -226.47437      3709486.2    
   1078000   299.59108      0.89302196     0.68428928     1.5773112      189.00771      107.51298      182.6997       31.064896      173.86739      39.271274     -6.1631899     -245.97427     -130.74902      3712600.7    
   1079000   300.32145      0.89519904     0.68277399     1.577973       188.97032      107.46763      182.78084     -439.89319      198.14503      68.284758      50.08991      -111.58752     -269.67423      3711948.6    
   1080000   299.43174      0.89254698     0.68126083     1.5738078      188.95656      107.4762       182.75407      102.93934      431.63348      118.85839     -12.494137     -94.273706     -306.08497      3711430.6    
   1081000   300.14586      0.89467565     0.68324462     1.5779203      189.0553       107.56502      182.64977     -86.958606      118.31123     -47.289258      120.1197      -32.369034     -336.87667      3714317.7    
   1082000   299.88214      0.89388953     0.68573038     1.5796199      189.01951      107.53203      182.65436      147.59041     -202.7698       275.83869     -114.00272     -66.35156      -215.88441      3712569      
   1083000   299.65959      0.89322617     0.68271172     1.5759379      188.85601      107.50875      182.70587     -291.53522      51.367721     -142.4495       16.546888      63.235981     -226.78695      3709600.4    
   1084000   300.48176      0.89567688     0.68276031     1.5784372      188.93037      107.53098      182.7747      -19.346897      58.835436      36.705523     -99.887825     -170.98924     -255.00148      3713226.7    
   1085000   300.50277      0.89573952     0.68267947     1.578419       188.94431      107.54621      182.76729      254.2508      -170.94418      301.65504      55.432513     -261.74271     -340.89255      3713876      
   1086000   299.84497      0.89377874     0.68284564     1.5766244      188.96416      107.55936      182.69088     -17.238319     -275.17678     -70.300182      35.60521      -112.13607     -247.63459      3713167.3    
   1087000   300.27661      0.89506539     0.68473007     1.5797955      188.98111      107.52728      182.65993      196.63966      255.56108      152.31585      121.50423     -60.202121     -340.00266      3711764      
   1088000   299.56734      0.89295117     0.6846932      1.5776444      189.02893      107.48364      182.76309      105.76645     -205.08109      25.375905     -154.98249     -223.48544     -340.37911      3713292.2    
   1089000   300.13663      0.89464812     0.68277336     1.5774215      189.02321      107.54889      182.7856       55.658965      82.261997      40.804878     -30.461977     -203.17579     -382.59268      3715891.8    
   1090000   299.16813      0.89176123     0.68252508     1.5742863      188.99193      107.53773      182.70019      128.13984     -184.73482     -180.33052     -238.04206     -2.9908798     -292.90301      3713155.3    
   1091000   299.66772      0.89325039     0.68316525     1.5764156      189.01623      107.52292      182.76639      62.417731     -115.00835     -17.373404     -150.12411     -192.59862     -333.13029      3714466.8    
   1092000   300.6834       0.89627794     0.68365326     1.5799312      188.97952      107.53483      182.73788     -148.48533      198.44473      184.89858      104.56803     -90.988331     -289.13726      3713577.4    
   1093000   300.27747      0.89506793     0.68652603     1.581594       188.93551      107.56352      182.74512     -58.85476       145.84704      98.916733     -76.517009     -91.94033      -357.33661      3713850      
   1094000   299.95842      0.89411691     0.68338958     1.5775065      189.05526      107.51776      182.73832     -85.101056      711.26752      104.97367      42.798287     -66.433753     -393.59032      3714484.9    
   1095000   300.2          0.89483701     0.68498255     1.5798196      188.98475      107.49983      182.77569      156.11762      199.60899      42.234913     -220.75951     -13.274754     -389.99925      3713239.8    
   1096000   299.77503      0.89357027     0.68217929     1.5757496      188.93685      107.51796      182.6991      -490.48781      40.541054      45.738782     -46.317914     -187.64737     -117.58437      3711368.7    
   1097000   300.2942       0.89511783     0.68467328     1.5797911      188.98645      107.57467      182.71395      105.18538     -184.63544     -109.68654      97.052183     -116.35001     -270.69421      3714602.7    
   1098000   299.59058      0.89302046     0.68316817     1.5761886      188.93011      107.54681      182.74008      291.45797     -291.24998     -88.253387      75.991368     -185.04902     -325.19727      3713064.7    
   1099000   299.72892      0.89343283     0.6822714      1.5757042      189.04892      107.51477      182.77777     -226.17198     -276.15001     -86.698981      118.90622     -191.21784     -400.57536      3715059      
   1100000   300.03006      0.89433048     0.68526804     1.5795985      189.05762      107.47475      182.73095     -226.20524      147.00397      113.47481      22.428557     -171.20518     -183.20203      3712895.8    
   1101000   299.9533       0.89410165     0.68198954     1.5760912      189.0859       107.4946       182.74861     -53.937211     -45.263324     -159.67454      67.320744     -116.88613     -381.4341       3714496.1    
   1102000   300.58224      0.89597641     0.68257938     1.5785558      188.90422      107.49839      182.6777       176.24976     -74.157388      43.744258      10.618206     -131.83892     -230.26522      3709617.7    
   1103000   300.02079      0.89430284     0.68150342     1.5758063      188.90663      107.48736      182.78655     -15.766404      154.4368       61.404755     -40.121316     -47.900338     -342.69004      3711494.8    
   1104000   300.20658      0.89485662     0.68331321     1.5781698      189.04544      107.51508      182.71247     -11.937031     -8.9883916      114.49087     -120.642       -224.60937     -255.84159      3713674      
   1105000   300.28495      0.89509023     0.68119952     1.5762898      188.98025      107.47937      182.62222      26.997351     -53.845775     -16.910928     -121.65819     -196.59242     -292.4708       3709327.1    
   1106000   299.71144      0.89338071     0.68268608     1.5760668      189.0404       107.49188      182.76206     -43.996993      25.406378     -51.313382     -12.371362     -121.35501     -322.58185      3713781.4    
   1107000   299.84801      0.89378779     0.68168324     1.575471       188.96901      107.55393      182.79338     -155.51014     -365.9738      -12.243644     -81.565173     -137.74226     -173.80939      3715158.6    
   1108000   299.99546      0.89422734     0.68146128     1.5756886      189.02368      107.55375      182.78492     -444.05705     -298.37759     -25.842409     -54.079644     -210.99485     -143.36391      3716055      
   1109000   299.63634      0.89315687     0.68200571     1.5751626      188.94301      107.5442       182.65803     -486.59897      193.33833      14.128766      172.22994     -170.69609     -330.91634      3711560.8    
   1110000   300.31177      0.89517019     0.68268651     1.5778567      188.95025      107.55766      182.60787     -346.43905      43.471965     -78.680277      17.857025     -195.43491     -266.13143      3711148.4    
   1111000   300.36511      0.89532918     0.68428057     1.5796098      188.97698      107.52853      182.64074      0.069751463   -104.22461     -92.231881     -90.345793     -265.32993     -391.72627      3711336.2    
   1112000   300.1004       0.89454013     0.68301691     1.577557       188.91361      107.5053       182.60069     -267.28279     -148.60038      113.98881      19.424914     -71.564698     -173.00002      3708476.5    
   1113000   299.90469      0.89395676     0.68210097     1.5760577      188.98651      107.52593      182.70319      57.035815      40.481196     -34.974414      54.405482     -133.58655     -419.7571       3712702.5    
   1114000   299.79176      0.89362013     0.68422809     1.5778482      188.93025      107.47892      182.60097     -76.849269     -7.0801446     -46.05965      -194.99029     -108.54167     -235.88219      3707898.7    
   1115000   299.74578      0.89348308     0.68166202     1.5751451      188.84315      107.5238       182.63332     -68.012952     -249.52531      96.158828      70.034732     -306.06265     -345.98112      3708393.9    
   1116000   300.51128      0.89576488     0.6829655      1.5787304      188.94228      107.57626      182.68847      59.978279     -62.488774      33.785841      64.849228     -190.80816     -261.02638      3713271.7    
   1117000   300.39447      0.89541669     0.68317489     1.5785916      189.02719      107.52174      182.7945       127.14292      247.24753     -10.375079      49.568097     -194.26764     -260.66347      3715212.7    
   1118000   299.94913      0.89408923     0.68409198     1.5781812      188.99173      107.55121      182.6643      -225.82598     -72.293555     -64.771149     -140.18988     -118.49968     -360.7729       3712887.6    
   1119000   300.73456      0.89643042     0.68251195     1.5789424      188.97784      107.53075      182.53677     -156.16698     -245.6234       33.260625     -66.668383     -54.360788     -165.58596      3709316.7    
   1120000   299.75512      0.89351091     0.68273949     1.5762504      188.88387      107.51158      182.59174      32.587107     -149.38711     -66.637857      125.07876     -243.28279     -367.98882      3707927.8    
   1121000   299.30197      0.89216017     0.6814758      1.573636       188.85249      107.56141      182.61114      250.6183       106.33447      117.54574      51.627821     -106.25202     -290.89203      3709423.8    
   1122000   300.14167      0.89466313     0.68362676     1.5782899      188.92774      107.51632      182.62269      212.24503      664.15163     -67.319351     -83.287018     -204.03229     -327.00758      3709581.1    
   1123000   300.053        0.89439885     0.68509691     1.5794958      188.88151      107.55752      182.7287       147.82414      454.63533     -41.432698      115.07444     -177.95658     -203.29941      3712248.1    
   1124000   300.04174      0.89436528     0.68399035     1.5783556      188.8614       107.53613      182.67261     -366.41591      152.40434      46.576102     -89.576027     -162.44566     -392.21371      3709975.6    
   1125000   299.39663      0.89244235     0.68276067     1.575203       188.97799      107.54705      182.66588     -120.97882     -144.56431     -173.38625     -162.69889     -194.11995     -435.2382       3712506.2    
   1126000   300.22679      0.89491687     0.68391243     1.5788293      189.09149      107.52606      182.64172     -23.183156      309.23916      43.266326      73.90461      -178.57105     -358.17969      3713519.3    
   1127000   299.64359      0.89317848     0.68256667     1.5757451      188.96193      107.51788      182.76594     -170.49732      152.6625       46.941277      126.93128     -207.79416     -247.6595       3713216.8    
   1128000   300.70956      0.89635592     0.68110474     1.5774607      188.86566      107.55894      182.64022      58.035799     -18.240123      44.777906     -167.15693     -172.62642     -230.43987      3710188      
   1129000   299.91805      0.89399657     0.68167904     1.5756756      188.98282      107.52307      182.5789      -81.981085      106.51322     -65.079884      215.20822     -136.72623     -332.14122      3710005.7    
   1130000   300.10035      0.89453997     0.68090299     1.575443       188.9467       107.49284      182.63954      35.09626       114.55665     -110.03079     -81.363526     -141.75651     -484.00223      3709485.2    
   1131000   299.76623      0.89354402     0.6820625      1.5756065      188.9575       107.55966      182.71868     -89.150076     -219.06302     -71.964066     -115.89152      16.006028     -377.16953      3713611.9    
   1132000   299.87233      0.89386029     0.68145715     1.5753174      189.00259      107.47593      182.57994     -171.25928     -136.05291      18.453686      272.27194     -208.28748     -258.3512       3708788      
   1133000   299.96307      0.89413079     0.68328561     1.5774164      188.93454      107.49946      182.80592      90.86921       158.94478      55.079863      237.44811     -220.64328     -310.09105      3712854.1    
   1134000   300.01948      0.89429892     0.68383599     1.5781349      188.98741      107.53141      182.60012      97.976044     -217.49126     -79.684756     -156.22358     -313.34307     -354.65914      3710814.8    
   1135000   299.95177      0.89409711     0.68291804     1.5770151      188.92994      107.5363       182.69217     -359.45079     -117.66574     -167.93147      218.26016     -74.465727     -190.28717      3711725.1    
   1136000   299.99035      0.89421208     0.68320873     1.5774208      188.87884      107.54433      182.69318      357.64357     -46.18162      -83.893426     -26.657185     -201.50278     -209.88683      3711018.8    
   1137000   300.29388      0.89511686     0.68298186     1.5780987      188.83399      107.50872      182.59104      123.87778     -154.65826      52.160501     -197.86666     -137.30642     -246.23075      3706835.7    
   1138000   300.31184      0.89517038     0.68365747     1.5788278      188.97739      107.54274      182.58836     -311.15007      18.665123      96.484348     -27.806813     -244.91021     -261.99083      3710770      
   1139000   299.62994      0.89313777     0.6833128      1.5764506      188.8816       107.58475      182.63905      182.9547       72.792563     -28.231877     -171.57238     -223.89454     -230.17961      3711368      
   1140000   300.29475      0.89511945     0.68422896     1.5793484      188.9666       107.5742       182.56157     -93.011498      58.229772     -27.97919       217.47439     -153.35536     -253.73884      3711099.1    
   1141000   299.73966      0.89346482     0.68319733     1.5766622      188.89278      107.55746      182.5911      -205.28766      83.524176     -8.0104255      11.4584       -270.28822     -184.29683      3709672      
   1142000   299.55226      0.89290624     0.68173236     1.5746386      188.8837       107.5881       182.59153      80.681902      0.76330834    -128.00041      78.18995      -35.42441      -242.00238      3710559.2    
   1143000   299.5878       0.89301216     0.68315882     1.576171       188.92511      107.54415      182.65002     -113.11825     -295.18646      49.693307      199.58322     -177.26722     -263.99173      3711045      
   1144000   299.65515      0.89321293     0.68121938     1.5744323      188.92403      107.56173      182.5415      -115.60808     -261.89476     -156.85767     -181.52441     -190.11815     -351.56576      3709424.9    
   1145000   299.77713      0.89357653     0.6841462      1.5777227      188.88888      107.56804      182.68852      223.75015     -123.43634     -77.514935      125.42111     -255.54074     -343.12718      3711939.7    
   1146000   299.13626      0.89166621     0.68147967     1.5731459      188.87234      107.52824      182.68147      400.77564      318.51396     -108.41878      64.08565      -29.428265     -160.876        3710098      
   1147000   300.5009       0.89573393     0.68548707     1.581221       188.91873      107.50963      182.52476      240.63056      447.5375       103.48249     -216.07749     -139.96385     -329.84753      3707184.3    
   1148000   300.00713      0.8942621      0.68334733     1.5776094      188.85905      107.53104      182.59698      41.001514      112.18844      21.240409     -24.440959     -222.6243      -324.88121      3708217.7    
   1149000   299.92926      0.89403        0.68443447     1.5784645      188.97546      107.55206      182.59802     -89.626371      19.32837       125.09558     -265.81529     -144.22536     -342.47755      3711249.9    
   1150000   300.24455      0.89496983     0.68372906     1.5786989      188.89092      107.58708      182.58705     -53.235525     -247.95207     -35.401946     -202.11802     -43.138039     -312.85688      3710574.5    
   1151000   299.74005      0.89346601     0.68136844     1.5748344      188.88982      107.55553      182.63683     -53.30602       229.24147     -150.58061      83.207924     -44.912706     -178.26454      3710476.5    
   1152000   299.81241      0.89368169     0.68345698     1.5771387      188.85711      107.56623      182.54467     -41.348661     -44.880606      116.99155      100.46607     -201.70712     -108.04532      3708330.5    
   1153000   300.05883      0.89441621     0.68267832     1.5770945      188.89311      107.55141      182.50132      176.80008     -182.41788     -7.0428446     -85.691226     -113.10204     -297.42625      3707645.6    
   1154000   300.97453      0.89714573     0.68136739     1.5785131      188.8862       107.55078      182.61794      320.58203     -84.237767     -50.99762      -29.912592     -128.1234      -301.91256      3709857.6    
   1155000   299.72         0.89340623     0.68202439     1.5754306      188.86778      107.52135      182.66253      231.08286      159.03762     -174.53137      111.43226     -172.7481      -224.01535      3709386.1    
   1156000   299.87938      0.8938813      0.67903269     1.572914       188.87838      107.56787      182.57199     -26.011074     -77.445936     -45.828141      84.024901     -145.97572     -267.76047      3709359.9    
   1157000   300.48533      0.89568754     0.68130584     1.5769934      188.90039      107.57621      182.57305     -51.41974      -263.45952      14.30063      -59.280896     -183.90734     -209.73616      3710101.3    
   1158000   300.16683      0.89473815     0.68198194     1.5767201      188.90774      107.56234      182.4353      -50.194373     -74.712866      130.48029      126.18905     -350.77213     -282.50769      3706968.3    
   1159000   300.37615      0.89536208     0.6804486      1.5758107      188.84183      107.51089      182.51269     -37.830729      167.20516      20.566652      46.784723     -127.57291     -313.6512       3705473.6    
   1160000   299.85463      0.89380755     0.68125586     1.5750634      188.78434      107.52653      182.57503      37.846838     -189.77706     -170.79363      219.65522     -177.64985     -299.13784      3706149.9    
   1161000   299.50375      0.89276162     0.68180156     1.5745632      188.89694      107.54608      182.54985     -207.29428      32.785036     -59.660191      110.33218     -80.134234     -250.34101      3708523      
   1162000   300.20311      0.8948463      0.68120412     1.5760504      188.86109      107.582        182.55575     -5.4346194     -217.38075      66.200714      19.858534     -148.31669     -250.01236      3709177.6    
   1163000   300.79911      0.89662284     0.68146662     1.5780895      188.84775      107.57376      182.46792      121.98002      133.41192      11.031786     -27.738382     -142.81174     -297.0836       3706847.4    
   1164000   300.03688      0.8943508      0.68256713     1.5769179      188.90099      107.54283      182.46913     -285.13783     -49.004615      15.792674     -189.09902     -195.31856     -288.01818      3706850.8    
   1165000   300.44721      0.89557389     0.6814948      1.5770687      188.90188      107.54935      182.37711     -174.30318     -242.45327     -66.573707     -49.020222     -134.09609     -251.80316      3705223.5    
   1166000   300.29841      0.89513036     0.68026159     1.575392       188.86343      107.57638      182.50151      251.89972     -46.893138     -149.48395      45.42302      -67.929344     -263.68193      3707927.7    
   1167000   299.49524      0.89273627     0.6819598      1.5746961      188.7946       107.57159      182.58396      6.2851336      0.87339073     60.202353     -204.57143     -113.22543     -266.73225      3708085.7    
   1168000   299.77191      0.89356097     0.68142864     1.5749896      188.90372      107.59057      182.52018      25.801618     -265.65477     -126.8418       114.06883     -324.5327      -148.77876      3709587.4    
   1169000   300.19606      0.89482527     0.68147566     1.5763009      188.92072      107.55079      182.49003     -16.887443      151.01129     -46.01394       177.80123     -98.621506     -182.95455      3707937.2    
   1170000   299.84514      0.89377926     0.68146666     1.5752459      188.96308      107.49713      182.39978      60.560469      306.86854      214.93818      75.417522     -355.69704     -353.35784      3705084.7    
   1171000   299.90901      0.89396964     0.68206681     1.5760364      188.86604      107.5181       182.59797     -33.536978     -59.70207      -213.92953     -176.59278     -88.422572     -174.73535      3707928.8    
   1172000   300.14742      0.89468029     0.68165881     1.5763391      188.88201      107.54343      182.59959      8.7679298     -295.44756     -273.72978     -146.58584     -129.20418     -366.17064      3709148.9    
   1173000   300.04175      0.89436532     0.68020718     1.5745725      188.87339      107.53478      182.40567     -137.67586     -3.19931        50.047024     -78.17923      -146.73802     -236.64068      3704742.8    
   1174000   300.27588      0.89506322     0.67916333     1.5742265      188.86658      107.54905      182.36116      389.02538     -128.54816      78.443784     -132.56401     -129.50868     -379.87171      3704196.7    
   1175000   299.7849       0.8935997      0.68262596     1.5762257      188.84629      107.56098      182.44945      111.02882     -44.472079      56.75969      -227.16458     -98.949308     -157.74097      3706003      
   1176000   300.12287      0.89460711     0.68256127     1.5771684      188.84274      107.53977      182.58581     -131.94373     -204.62302     -126.46391     -91.633369     -35.77231      -226.66957      3707971.8    
   1177000   299.89088      0.8939156      0.68153994     1.5754555      188.85478      107.54027      182.51897      52.324151     -4.0097929     -2.6113678      25.989599     -134.81647     -147.81961      3706868      
   1178000   300.70814      0.89635168     0.68140435     1.577756       188.91893      107.52796      182.47095     -293.92904      290.54544     -119.86303     -202.99504     -56.449426     -217.62958      3706727.3    
   1179000   300.0289       0.894327       0.68271975     1.5770467      188.87405      107.56896      182.40136      93.455255      42.930639     -44.988571     -15.417709     -105.98747     -392.92275      3705845.7    
   1180000   300.34772      0.89527733     0.68014488     1.5754222      188.78188      107.54872      182.40918     -59.353908      14.84981       63.745197     -93.526783     -218.95657     -356.72925      3703499.2    
   1181000   299.64956      0.89319626     0.6796966      1.5728929      188.80305      107.55626      182.51143      26.568863     -114.10046      93.410033      41.810184     -199.77212     -249.01234      3706250.6    
   1182000   300.76895      0.89653295     0.68160961     1.5781426      188.85475      107.53407      182.44819      227.62425      57.888144      4.29954       -112.07694     -94.325492     -67.492638      3705216.3    
   1183000   300.33347      0.89523486     0.67914506     1.5743799      188.74381      107.49208      182.47007      93.74952       210.81984      92.528538     -318.87944     -219.91688     -190.20827      3702037.7    
   1184000   300.496        0.89571933     0.68072953     1.5764489      188.82774      107.56286      182.44258     -6.4288252      111.55429     -168.28786     -195.37471     -159.52632     -248.78683      3705564.1    
   1185000   299.93766      0.89405504     0.68150201     1.5755571      188.95457      107.51798      182.48981      173.93278      239.71323      10.341822      93.256312     -143.81426     -319.59712      3707465.5    
   1186000   300.18444      0.89479064     0.68180355     1.5765942      188.89876      107.55842      182.47915     -39.967787     -28.160779     -111.64499      25.944816     -201.81689     -371.60144      3707548      
   1187000   299.64033      0.89316874     0.68031666     1.5734854      188.8406       107.5537       182.34928     -108.63909     -103.42563     -12.096985     -45.184598      6.8019453     -222.35793      3703606.2    
   1188000   299.86554      0.89384007     0.67813785     1.5719779      188.79695      107.57149      182.41956      262.04436      119.0562      -50.307137     -22.726143      38.421353     -379.95907      3704789.7    
   1189000   299.91691      0.89399318     0.68298698     1.5769802      188.82222      107.5436       182.54223      199.44869     -36.19419      -84.131998      174.06369     -27.330867     -267.71534      3706815.9    
   1190000   299.71038      0.89337755     0.68026991     1.5736475      188.80943      107.51631      182.26796     -145.99859      251.83036      241.57599     -21.292617     -80.58612      -152.22012      3700056.8    
   1191000   300.47976      0.89567094     0.68188706     1.577558       188.72724      107.56381      182.41106     -63.49904       155.85293     -206.83205      146.14509      19.830657     -246.59267      3702985.1    
   1192000   300.7799       0.8965656      0.67963348     1.5761991      188.80108      107.55974      182.46452      131.12812     -46.462284     -94.98802      -24.308496     -25.196045     -222.47577      3705379.3    
   1193000   300.6861       0.89628599     0.68109512     1.5773811      188.8258       107.55471      182.30848      412.22656      115.11072      58.553089     -29.40441      -96.126287     -435.53785      3702521.9    
   1194000   299.91431      0.89398543     0.67856655     1.572552       188.75575      107.52528      182.29596     -141.23098      264.80115      95.762686     -181.64949     -145.67549     -110.32827      3699881.2    
   1195000   299.08119      0.89150207     0.68182599     1.5733281      188.88192      107.5355       182.46116     -117.09727     -75.573311      52.23625      -61.127376     -114.01872     -302.93133      3706062      
   1196000   299.55936      0.89292738     0.68004515     1.5729725      188.76662      107.5651       182.42493      103.40054     -16.059493     -77.397353      65.368847     -148.42435     -301.2371       3704083.4    
   1197000   299.78742      0.89360721     0.68022663     1.5738338      188.79757      107.54017      182.32197      451.17704      173.77979      43.909112     -35.939048     -78.108307     -278.68966      3701741.7    
   1198000   299.76055      0.89352711     0.6808989      1.574426       188.77807      107.54353      182.53751      386.34154      229.73559      101.84912      49.66879      -115.2168      -169.25301      3705851      
   1199000   299.82387      0.89371585     0.68136672     1.5750826      188.82112      107.54883      182.39496      106.13176      80.431319     -12.169148      69.224271     -121.59948     -72.31641       3703983.8    
   1200000   300.75291      0.89648514     0.68208203     1.5785672      188.80479      107.55685      182.36496      296.69228      202.77828      135.8086       36.258123     -126.42585     -319.57762      3703330.4    
   1201000   300.49935      0.89572932     0.67989473     1.5756241      188.88612      107.54081      182.39344      73.372067      31.70995      -39.722219      147.83104     -44.826251     -112.4543       3704952      
   1202000   300.38006      0.89537374     0.68165181     1.5770255      188.83427      107.5994       182.315       -39.079887     -404.72046      1.1719778     -86.269876     -248.3405      -137.14089      3704358.9    
   1203000   300.26566      0.89503275     0.68074786     1.5757806      188.86235      107.56497      182.32908     -213.50684      52.857824      223.83543     -49.050007     -196.45436     -329.67468      3704010.3    
   1204000   299.09687      0.8915488      0.68286973     1.5744185      188.82875      107.55918      182.47262      165.02943      183.20163      162.82621      63.196942     -135.15177     -205.36053      3706067.6    
   1205000   300.01257      0.89427834     0.68105089     1.5753292      188.97512      107.51847      182.42479      182.75183     -48.221067     -110.75669     -181.57273     -94.462132     -163.45532      3706564.5    
   1206000   300.37197      0.89534964     0.67932822     1.5746779      188.9554       107.52353      182.3057      -259.2933      -168.50997      155.83964     -20.424031      60.038664     -189.3033       3703932.4    
   1207000   300.6056       0.89604602     0.68259265     1.5786387      188.85836      107.55245      182.54014      45.451741     -184.80242     -137.78033     -346.77443     -69.10099      -204.98919      3707788.1    
   1208000   299.58881      0.89301518     0.67875402     1.5717692      188.77862      107.54962      182.45788      159.77508     -19.268951     -54.233966     -205.13606     -55.462411     -388.54373      3704454.9    
   1209000   299.5002       0.89275105     0.67906531     1.5718164      188.91403      107.53981      182.3385       44.539414      138.06643      102.2282       81.251313     -167.85326     -324.20201      3704348.8    
   1210000   299.86222      0.89383017     0.68213074     1.5759609      188.87073      107.5115       182.38221      296.20461      397.82116      237.85087      21.014876      100.50249     -180.6064       3703412.2    
   1211000   299.77161      0.89356008     0.68107666     1.5746367      188.85545      107.51625      182.49607      63.276956      233.35756     -135.35197     -18.697255     -73.429761     -212.93306      3705588.3    
   1212000   299.96409      0.89413382     0.67919017     1.573324       188.86972      107.54877      182.4135       204.06936     -24.236864     -182.87216      107.57084     -136.99156     -380.29413      3705312      
   1213000   299.78688      0.8936056      0.6788267      1.5724323      188.82502      107.52441      182.35621      245.10041      324.30537     -77.868671     -44.29907       113.44418     -246.92375      3702432.6    
   1214000   299.71556      0.893393       0.68274884     1.5761418      188.83069      107.54082      182.30067      201.06913      318.36918      27.170072     -54.373723      20.544692     -291.7406       3701981      
   1215000   300.38456      0.89538714     0.68081182     1.576199       188.85082      107.55148      182.36749      135.46763      296.92211     -119.8427      -13.493231     -154.62272     -148.92026      3704099.7    
   1216000   299.57459      0.89297281     0.68175941     1.5747322      188.87915      107.51082      182.44378     -106.23423      258.24776      10.480981     -226.0722      -20.602627     -220.16837      3704804.1    
   1217000   299.72139      0.89341037     0.68107762     1.574488       188.93736      107.55663      182.28779      34.571255     -291.95184      3.286423      -60.365023     -33.479469     -213.09249      3704355.2    
   1218000   299.89943      0.89394107     0.68145433     1.5753954      188.92541      107.55009      182.33657      160.99011      13.947657     -10.68839      -121.41913     -124.39569     -223.4803       3704886.7    
   1219000   299.92656      0.89402194     0.68132903     1.575351       188.8943       107.57131      182.4882      -413.58786      146.83145     -78.862883     -147.43601     -118.71359     -152.57964      3708088.6    
   1220000   300.59998      0.89602929     0.67876633     1.5747956      188.86399      107.5089       182.40857      215.88466      157.38665     -12.958439     -193.97451     -157.48199     -117.87956      3703725.5    
   1221000   300.07862      0.8944752      0.68002495     1.5745001      188.95395      107.54981      182.38003     -153.1341      -322.24449      85.867829     -58.076386     -82.631146     -291.57995      3706319.8    
   1222000   299.57839      0.89298412     0.67885098     1.5718351      188.86468      107.5116       182.2628      -18.235935      54.962648     -180.6382      -57.870588      47.412302     -206.74752      3700872.4    
   1223000   300.11454      0.89458228     0.67977686     1.5743591      188.82827      107.56414      182.36221      135.89362      76.579511      9.7205042      100.89995     -173.95415     -287.25866      3703986.4    
   1224000   300.12421      0.8946111      0.67739338     1.5720045      188.78983      107.55232      182.36573      446.69186     -53.324765     -190.81004     -75.31886      -53.645931     -188.76818      3702896.9    
   1225000   299.70708      0.89336773     0.67848976     1.5718575      188.90578      107.53844      182.33369     -63.238325      54.384363      211.55686     -13.733591     -188.57612     -236.09512      3704042      
   1226000   299.92637      0.89402138     0.68159405     1.5756154      188.88936      107.51823      182.46894      82.060119     -242.29814     -164.92554      142.66157     -137.40442     -181.58856      3705770.8    
   1227000   300.70632      0.89634627     0.67949058     1.5758369      188.8517       107.52208      182.33882      288.93061     -10.537329      39.24243      -73.106354     -37.416449     -424.12867      3702522.3    
   1228000   300.02961      0.89432913     0.67874231     1.5730714      188.84226      107.53043      182.2436      -85.87719       90.144303      53.968701     -50.728598     -97.415638     -283.3466       3700691.2    
   1229000   300.2857       0.89509248     0.68070234     1.5757948      188.76377      107.55063      182.42129     -165.24937     -76.05289      -195.82934     -176.17287     -74.597356     -228.70286      3703455.6    
   1230000   299.70811      0.89337081     0.67901969     1.5723905      188.84259      107.53855      182.3393      -142.02127     -62.895145     -1.1188773     -197.99081      38.798519     -187.85703      3702920.6    
   1231000   299.83098      0.89373704     0.68011514     1.5738522      188.82957      107.53231      182.34617      19.584029     -55.033653      43.28652      -100.91847     -172.64001     -173.99142      3702590.1    
   1232000   300.11702      0.89458969     0.67890032     1.57349        188.79745      107.52356      182.3255      -106.93836      163.57494      118.98428      63.186176     -49.284478     -214.60729      3701239.5    
   1233000   299.55996      0.89292919     0.67904659     1.5719758      188.89331      107.51578      182.20201      150.95805      618.19968     -57.273921     -148.28618     -148.13285     -234.67627      3700342.6    
   1234000   300.11022      0.89456941     0.67891792     1.5734873      188.85088      107.51755      182.32609      22.812756     -10.082475     -122.52919      75.952891     -190.66262     -167.24096      3702091.6    
   1235000   300.04448      0.89437344     0.68135469     1.5757281      188.86704      107.51583      182.44385      208.5629       77.011238     -34.439756     -8.8409084     -106.58269     -235.33503      3704740.5    
   1236000   299.90078      0.89394511     0.68262649     1.5765716      188.79941      107.56167      182.40645      141.90308      44.75934       37.504856     -183.30417      24.02664      -155.06822      3704233.7    
   1237000   300.6713       0.89624186     0.68146825     1.5777101      188.80863      107.54825      182.32244      514.83687      20.429687      128.12682     -60.903396     -176.55083     -121.84354      3702246.4    
   1238000   299.97512      0.8941667      0.67675437     1.5709211      188.89756      107.56633      182.34171     -99.444546     -366.20471      108.07563     -154.12259     -53.394937     -334.68097      3705004.5    
   1239000   300.11179      0.89457409     0.67951019     1.5740843      188.81816      107.58187      182.36783      198.67152     -5.6065342     -44.377148     -97.478261     -127.12384     -197.92036      3704512.5    
   1240000   299.94371      0.89407306     0.68070025     1.5747733      188.83744      107.55432      182.31093      30.93633      -206.49729      121.35177      19.301274     -203.06611     -189.01824      3702786.5    
   1241000   300.0718       0.89445487     0.67923194     1.5736868      188.76595      107.56905      182.30194     -61.014317     -237.65578      24.441999      108.46955     -125.35773     -254.14005      3701709.1    
   1242000   299.49971      0.89274958     0.67945319     1.5722028      188.86986      107.51153      182.27751     -148.15459      227.7435      -39.544411      48.524948     -91.034164     -239.19109      3701270.2    
   1243000   300.28676      0.89509565     0.67873729     1.5738329      188.79928      107.55383      182.25895      382.30075     -43.353173      67.36978       23.581504     -68.599673     -190.08809      3700966      
   1244000   300.14422      0.89467074     0.68055669     1.5752274      188.93067      107.52072      182.33966      59.99254      -27.576598     -54.972854      162.97848      99.023199     -130.23547      3704040.7    
   1245000   300.08377      0.89449055     0.6802674      1.574758       188.82488      107.48704      182.34116      193.86324      252.00448      31.074293      12.33231      -129.75915     -289.07008      3700837.5    
   1246000   299.57033      0.8929601      0.68028782     1.5732479      188.81345      107.51594      182.42457     -106.5373      -289.86848      42.693552     -8.1183887     -120.16717     -163.69597      3703302      
   1247000   299.82398      0.89371619     0.68092559     1.5746418      188.91933      107.54197      182.40039     -148.53073     -176.44307     -16.102822      29.242118     -103.42719     -112.18936      3705784.4    
   1248000   298.92125      0.89102531     0.67913038     1.5701557      188.88301      107.51552      182.23764     -265.43637      130.1491       227.71973      64.654627     -61.35321      -334.51975      3700855.6    
   1249000   300.60496      0.89604412     0.67888869     1.5749328      188.85017      107.52146      182.26642      105.54225      177.07528     -11.431487     -109.32264     -125.90498     -316.93009      3701000.9    
   1250000   299.83725      0.89375575     0.67934185     1.5730976      188.83842      107.48362      182.29178     -434.19392      142.68544     -192.76878     -44.840784      9.0677507     -223.04821      3699982.8    
   1251000   299.73723      0.89345759     0.68081426     1.5742718      188.8703       107.53144      182.47857      160.80025     -28.071117      11.33509       37.974676     -89.960703     -218.97855      3706047.7    
   1252000   299.99766      0.89423388     0.67920206     1.5734359      188.76998      107.5482       182.34022     -27.530172     -181.73238      22.05374       45.614787     -158.34891     -296.9944       3701847.9    
   1253000   299.95194      0.8940976      0.67936409     1.5734617      188.77626      107.51162      182.27623      59.918847     -172.46637     -87.073625      102.43659      7.4413507     -356.31261      3699413      
   1254000   300.78543      0.89658207     0.68177325     1.5783553      188.84644      107.53606      182.36954     -81.390629      233.80184     -26.043231     -151.97045     -197.46833     -66.920107      3703524.7    
   1255000   300.34903      0.89528126     0.67989483     1.5751761      188.90237      107.52708      182.29138     -30.22618       179.01108      266.69376     -32.565115     -191.38613     -230.41699      3702724.3    
   1256000   300.11685      0.89458917     0.6805026      1.5750918      188.84031      107.54964      182.37659     -264.29443      42.246962      73.103513      35.204708     -145.11077     -200.8663       3704015.4    
   1257000   300.62845      0.89611415     0.68024308     1.5763572      188.73325      107.53934      182.26718      231.86585     -59.700723      17.090648     -15.957459     -122.4871      -223.90343      3699340.3    
   1258000   300.13916      0.89465566     0.68012306     1.5747787      188.8432       107.57396      182.3389       183.01799      68.787874      182.7049      -45.946105     -51.21776      -343.31157      3704143.8    
   1259000   300.17352      0.89475809     0.67954411     1.5743022      188.8816       107.56263      182.30458      41.155815      212.02066      6.6707802     -114.07592     -156.98086     -188.09686      3703809.5    
   1260000   300.17925      0.89477518     0.68091519     1.5756904      188.86013      107.56384      182.32376     -33.416639      34.903839     -127.51601      193.68093     -199.21913     -231.64296      3703819.7    
   1261000   299.79394      0.89362663     0.67952248     1.5731491      188.83783      107.51464      182.37465      174.31059     -46.697522     -171.27281     -113.53411     -116.51479     -240.89941      3702721.7    
   1262000   300.46977      0.89564116     0.67990317     1.5755443      188.73256      107.54208      182.32163     -141.28105     -321.06417     -110.75521      53.154247     -117.05536     -231.72119      3700525.9    
   1263000   299.85334      0.89380368     0.67912268     1.5729264      188.76391      107.50285      182.25235      17.41629       114.35168      272.3106       172.08088     -17.505588     -428.88453      3698384.7    
   1264000   300.33182      0.89522995     0.6801314      1.5753614      188.78368      107.54297      182.40711     -0.1411448      6.1874813      29.252724      83.203495     -125.58313     -284.59291      3703294.4    
   1265000   299.7626       0.89353322     0.67972579     1.573259       188.83373      107.51006      182.36308      121.78776      102.068       -14.916315     -178.65721      18.862212     -321.20458      3702248.6    
   1266000   300.26364      0.89502672     0.67645784     1.5714846      188.88054      107.53745      182.25892     -282.84021     -41.205054     -137.64034      94.748523     -238.44771     -382.49259      3701994.4    
   1267000   300.34817      0.89527868     0.67881042     1.5740891      188.83842      107.50197      182.32812      308.18035      258.96096      190.37546      157.9644      -160.82923     -270.4559       3701352.3    
   1268000   299.4859       0.89270844     0.68173865     1.5744471      188.82963      107.56209      182.36253      18.042335      245.50991      61.125717     -2.9744031     -62.844852     -224.01742      3703948.7    
   1269000   299.85029      0.89379461     0.67935231     1.5731469      188.76634      107.51957      182.26749      147.91765     -32.978489     -201.60173     -67.276515     -188.28883     -303.2737       3699314.9    
   1270000   299.6904       0.89331801     0.67989374     1.5732118      188.81464      107.52586      182.3571      -78.696159      296.28344      51.480441      44.699107     -118.76382     -289.92166      3702297.3    
   1271000   299.82511      0.89371955     0.67942073     1.5731403      188.77613      107.5141       182.42726     -211.79332      168.50277     -373.0589       73.655441     -143.83326     -254.48422      3702560.9    
   1272000   299.69405      0.89332889     0.68078626     1.5741151      188.7599       107.52056      182.33337     -198.29755      54.740217     -120.46084     -118.2383      -137.77197     -218.93069      3700559.6    
   1273000   299.35037      0.89230443     0.68105987     1.5733643      188.83963      107.55008      182.30332     -264.45187     -19.26016      -35.225235      169.3715      -90.599544     -227.38418      3702529.1    
   1274000   299.2535       0.89201569     0.67821815     1.5702338      188.85484      107.52763      182.334        127.85046     -9.1023873      62.846858     -53.364745      63.890567     -401.52116      3702677.3    
   1275000   300.29721      0.89512679     0.68114077     1.5762676      188.84288      107.5254       182.36992      104.0608       296.49083      105.06157      53.330933     -309.14547     -267.02827      3703095      
   1276000   300.1164       0.89458781     0.67835651     1.5729443      188.80762      107.55053      182.36174      9.6065302     -144.93391     -63.459543      30.951809     -46.67145      -251.75592      3703103.2    
   1277000   299.98067      0.89418324     0.68004192     1.5742252      188.85783      107.6043       182.30968      53.102482     -518.7447       70.199734     -127.86822     -95.647052     -269.70422      3704881.7    
   1278000   299.91422      0.89398518     0.68074715     1.5747323      188.88729      107.5526       182.40677      16.221572      174.69261      50.262809     -99.408835     -195.85155     -196.51914      3705651.8    
   1279000   299.76497      0.89354028     0.68046546     1.5740057      188.90903      107.52704      182.43342     -165.12418     -77.215594     -53.957633     -134.40237     -78.482713     -320.99741      3705738.8    
   1280000   300.46435      0.895625       0.68154358     1.5771686      188.9398       107.54311      182.40155      81.135952     -270.02853     -45.194223     -98.909188     -222.08822     -211.80885      3706248.8    
   1281000   300.05082      0.89439235     0.68223122     1.5766236      188.86953      107.54801      182.36386      142.78962      105.60595     -96.947568     -158.20593     -145.35491     -215.88733      3704273.7    
   1282000   299.97589      0.89416898     0.68182923     1.5759982      188.76039      107.6187       182.46954     -15.165491      77.696321      84.060425     -131.72632     -95.907699     -211.64128      3706713.1    
   1283000   300.11017      0.89456925     0.68206329     1.5766325      188.85905      107.57564      182.34516      21.219084     -144.31806      58.119971      37.51474      -94.933571     -373.45273      3704639.9    
   1284000   299.85223      0.89380039     0.67971963     1.57352        188.87013      107.50343      182.41486     -62.888463      131.48896     -70.014017      66.550618     -123.19067     -329.47486      3703785.5    
   1285000   300.00387      0.89425241     0.68092242     1.5751748      188.86456      107.51501      182.43177      157.12156      50.256929     -175.2704      -141.96318     -155.4942      -156.18157      3704418.6    
   1286000   299.54793      0.89289333     0.67995542     1.5728488      188.93463      107.51511      182.39181     -585.01003     -245.10527     -205.9836      -84.183187     -122.78748     -237.66094      3704984.5    
   1287000   300.52366      0.89580179     0.68027535     1.5760771      188.81738      107.55543      182.36953     -274.19667     -35.848457     -38.48317      -124.34957     -36.213609     -238.39194      3703621.4    
   1288000   300.25324      0.89499573     0.67856758     1.5735633      188.92741      107.55121      182.29705     -210.16347     -243.9076       6.4867679      14.254245      55.259184     -400.33951      3704161.6    
   1289000   299.8197       0.89370342     0.68163763     1.5753411      188.90694      107.55736      182.36546      63.37759      -117.91867      93.815818     -79.450137     -25.416387     -276.2189       3705362.2    
   1290000   299.64312      0.89317706     0.68124546     1.5744225      188.79833      107.58086      182.39813      517.36053     -73.711186      10.041331     -142.19355     -212.06835     -338.37909      3704704.5    
   1291000   300.07281      0.89445789     0.68254009     1.576998       188.84889      107.58317      182.50449     -27.41526      -209.51727     -207.01458     -57.770015     -28.298583     -238.62396      3707936.9    
   1292000   299.96379      0.89413292     0.68155542     1.5756883      188.84943      107.56887      182.33977      24.554797     -335.05427     -163.67239      30.794513     -236.93868     -216.5493       3704108.3    
   1293000   300.2789       0.89507221     0.68133155     1.5764038      188.73647      107.58932      182.44224      170.581       -257.45375     -139.99591     -112.76934      5.6290384     -279.79991      3704677.4    
   1294000   300.81551      0.89667172     0.68129142     1.5779631      188.86851      107.54743      182.40324     -129.56073     -200.65613     -19.793726     -58.353109      19.886454     -175.33306      3705033.6    
   1295000   300.18377      0.89478864     0.67934732     1.574136       188.9421       107.53415      182.38647      133.15095      420.39394      125.30393      46.81664      -138.91557     -188.76208      3705678.8    
   1296000   300.44898      0.89557919     0.67932639     1.5749056      188.89694      107.61277      182.38021     -101.60724      65.304007      296.62424      48.898718     -68.884606     -78.44548       3707374.2    
   1297000   299.84227      0.89377068     0.68004279     1.5738135      188.91043      107.59315      182.35914     -373.70931     -298.70916     -33.598987     -42.273086     -69.076113     -138.57943      3706534.7    
   1298000   299.32976      0.89224299     0.68086051     1.5731035      188.79055      107.56189      182.38896     -84.711331      23.512925     -119.29631     -52.019712     -127.74717     -255.5692       3703712      
   1299000   299.88089      0.89388583     0.67750757     1.5713934      188.76192      107.59309      182.40394     -38.695579     -193.61365      52.339715     -293.39861      23.325782     -222.64536      3704528.7    
   1300000   300.03428      0.89434304     0.68256118     1.5769042      188.85141      107.591        182.3611       34.322869      103.2536      -167.98433     -25.340836     -143.57627     -205.55298      3705342.8    
   1301000   300.17725      0.8947692      0.6781701      1.5729393      188.82749      107.54684      182.26         252.93634     -13.457455     -186.86133     -42.704557     -93.093301     -291.42114      3701299.5    
   1302000   300.17537      0.89476361     0.67990747     1.5746711      188.80566      107.51665      182.50421      154.00495      74.04994      -85.231382      1.393379      -198.47777     -180.3201       3704790.3    
   1303000   300.185        0.89479231     0.68195746     1.5767498      188.85254      107.56134      182.41463     -32.739448     -374.17456      106.17571     -91.576583     -175.94683     -334.2437       3705430.8    
   1304000   300.30739      0.89515713     0.68026806     1.5754252      188.85004      107.52178      182.4932       137.83154      213.93519     -73.23736      -37.868491     -254.60732     -331.04948      3705614.4    
   1305000   299.76795      0.89354916     0.68220428     1.5757534      188.92637      107.47676      182.52797     -178.18841      138.84495     -64.465206     -89.954231     -21.819014     -264.44619      3706265.8    
   1306000   300.3112       0.8951685      0.68224233     1.5774108      188.89167      107.59722      182.42168     -109.33545      128.0108       204.05523     -115.26618     -196.55526     -327.60744      3707577.8    
   1307000   299.69935      0.89334468     0.68032154     1.5736662      188.82137      107.54087      182.33062      169.24646      117.89179      189.38684      162.29284     -111.76508     -310.66694      3702408.2    
   1308000   299.90883      0.89396911     0.67996033     1.5739294      188.92066      107.52609      182.52177      70.395258      53.267916      22.272653     -39.648495     -136.75683     -242.48052      3707729.1    
   1309000   299.45149      0.89260585     0.68090391     1.5735098      188.89746      107.5293       182.4273      -51.258997      97.414556     -98.288329      58.088924     -147.09114     -323.64877      3705465.6    
   1310000   299.94245      0.89406932     0.68203775     1.5761071      188.77012      107.51279      182.3562       130.50922      74.479795     -112.02778      101.52883     -65.041202     -293.58817      3700956.1    
   1311000   300.37243      0.895351       0.6817238      1.5770748      188.83609      107.53732      182.45455      109.32722      249.35274      132.40516     -242.00248     -69.047206     -287.04701      3705091.3    
   1312000   299.25793      0.8920289      0.68247887     1.5745078      188.8658       107.52761      182.5597      -148.66982      32.735051     -96.288829     -31.231959     -129.80082     -299.51881      3707475.2    
   1313000   298.97963      0.89119933     0.67901664     1.570216       188.88727      107.53117      182.43856     -399.51033     -103.9131      -83.727807      8.7254465     -104.83863     -137.88176      3705558.9    
   1314000   299.71859      0.89340202     0.68080208     1.5742041      188.89153      107.54383      182.48646      42.217727      293.63381      51.471111     -217.38139      82.628311     -269.2908       3707051.5    
   1315000   300.28147      0.89507988     0.6807101      1.57579        188.97239      107.47797      182.4677      -123.00943      81.34719       173.25277      0.082444662   -92.051541     -350.11947      3705986.2    
   1316000   300.39435      0.89541633     0.68205873     1.5774751      188.8745       107.54606      182.42585      242.45921      210.60193      50.349989      128.51278     -220.49916     -185.46465      3705563.1    
   1317000   299.66708      0.8932485      0.68196072     1.5752092      188.80132      107.55231      182.29023      15.254697     -332.21249     -9.8102259     -127.10806      63.874006     -233.78574      3701588.6    
   1318000   299.67935      0.89328507     0.67859625     1.5718813      188.88076      107.55409      182.34788     -221.18962     -565.51207      101.02789     -33.447492     -138.03781     -336.17173      3704378.6    
   1319000   299.41091      0.89248491     0.68153744     1.5740224      188.81959      107.54221      182.46366      190.63034     -75.064035     -109.17173     -6.8401622     -258.20589     -214.29719      3705120.8    
   1320000   300.53961      0.89584932     0.68078821     1.5766375      188.75229      107.52478      182.53561      332.68462     -372.68892      9.3099888      18.028244     -208.33053     -147.07208      3704660.6    
   1321000   300.57185      0.89594542     0.68086245     1.5768079      188.82582      107.52596      182.44386     -103.41992     -158.30009     -160.60452     -28.843435     -142.2616      -363.11155      3704281.2    
   1322000   300.23933      0.89495425     0.68156202     1.5765163      188.8652       107.56496      182.42342     -114.68002     -88.242034      1.1511391      42.15592      -97.204437     -179.60946      3705982.4    
   1323000   300.59635      0.89601847     0.68001297     1.5760314      188.86716      107.55906      182.37996      91.922146     -9.6717896      28.719983     -133.86974     -134.87294     -235.85026      3704934.9    
   1324000   300.47241      0.89564901     0.68097019     1.5766192      188.91412      107.5651       182.32849      71.930581     -161.1249       360.1325       248.54186     -198.31231     -190.28427      3705018.1    
   1325000   300.17845      0.89477279     0.68129847     1.5760713      188.78425      107.55004      182.4132      -55.805467      140.4142      -61.840331     -48.665419     -88.802548     -388.67736      3703672.9    
   1326000   299.85357      0.89380437     0.68194246     1.5757468      188.86147      107.57924      182.35251      159.90859     -20.415264     -70.311298     -247.59683     -64.604415     -400.65284      3704960.6    
   1327000   299.62776      0.89313127     0.67894028     1.5720715      188.78007      107.58708      182.30981     -209.63277     -76.315189      21.315824     -100.58815     -33.58487      -284.3127       3702766      
   1328000   300.42959      0.89552138     0.68094408     1.5764655      188.82447      107.55565      182.43052      53.630145      164.22287      4.5658485     -56.750527     -166.90528     -270.02565      3705006.8    
   1329000   300.31987      0.89519434     0.68220532     1.5773997      188.79273      107.60357      182.44467      266.16348     -55.267782     -46.434971      9.8350957     -99.544042     -242.40012      3706322.1    
   1330000   299.9582       0.89411625     0.68106493     1.5751812      188.86005      107.57054      182.34929      45.01922       344.14939     -37.552352     -155.17714     -171.87847     -205.16372      3704567.6    
   1331000   299.54646      0.89288896     0.67996335     1.5728523      188.82904      107.56966      182.31108     -118.82728     -182.60622      85.372715     -82.816968     -97.923747     -235.97772      3703153.2    
   1332000   299.5779       0.89298265     0.68138352     1.5743662      188.86489      107.54769      182.28036     -29.657306      8.971538      -190.11593      72.734955     -224.69525     -223.40916      3702475.4    
   1333000   300.75476      0.89649064     0.67957588     1.5760665      188.86376      107.55         182.39325     -60.751257     -26.15565       34.811888      22.266544     -152.89881     -291.17854      3704826      
   1334000   299.88232      0.89389006     0.67775046     1.5716405      188.71971      107.56578      182.28816      340.70289      74.838633      209.16583     -248.81206     -310.32108     -180.32847      3700410.3    
   1335000   300.53594      0.89583839     0.680353       1.5761914      188.86406      107.58646      182.32916     -416.67531      190.44927     -132.96622     -303.94884     -260.25314     -238.51358      3704785.7    
   1336000   300.30722      0.89515661     0.68090431     1.5760609      188.7479       107.54597      182.28948     -277.41313      219.91675      91.751239     -132.4972      -96.127737     -100.53181      3700307.9    
   1337000   299.90299      0.89395168     0.68014163     1.5740933      188.84093      107.59221      182.19266     -163.4205      -230.69236      143.12622      68.998214     -105.72062     -124.14886      3701756.4    
   1338000   299.67912      0.89328437     0.67975393     1.5730383      188.83388      107.58856      182.30976      173.37597     -35.629648     -55.097923      91.804825     -162.90104     -166.35867      3703871.7    
   1339000   300.47866      0.89566765     0.67832494     1.5739926      188.79258      107.52001      182.31883      164.70344     -166.98567      130.39596      0.38934869    -93.651414     -234.68783      3700886.3    
   1340000   300.26973      0.89504488     0.67961941     1.5746643      188.83108      107.51497      182.43582      214.39003     -295.95094     -137.88681      58.763746      38.067741     -85.741405      3703842.6    
   1341000   300.91263      0.89696124     0.67774407     1.5747053      188.83926      107.54136      182.27382      123.82213      13.72256      -98.918568     -26.707091     -12.585313     -239.07152      3701622.2    
   1342000   300.16954      0.89474622     0.67957313     1.5743194      188.69263      107.55504      182.28231      12.355024      124.48522     -5.5905219     -73.616669      52.838713     -107.97415      3699390.8    
   1343000   300.4627       0.89562007     0.6782021      1.5738222      188.79307      107.52103      182.08911      102.36969     -213.8705       47.538275     -86.907334     -72.397721     -56.639428      3696267.7    
   1344000   299.89545      0.89392921     0.67958951     1.5735187      188.78938      107.55605      182.3165      -86.378734     -179.42839     -274.75538      86.523998     -98.460612     -292.00928      3702017      
   1345000   299.89681      0.89393328     0.67968838     1.5736217      188.87797      107.51724      182.31973      114.79635      3.4492545      136.85732      78.995942     -151.57306     -187.40314      3702483      
   1346000   300.55381      0.89589167     0.68179928     1.5776909      188.95099      107.53581      182.22927      121.40874     -213.27098      117.37501      23.624085     -79.976405     -264.39856      3702716.4    
   1347000   300.21069      0.89486888     0.67914745     1.5740163      188.79568      107.54613      182.13656     -128.6788      -16.737808      129.18681     -85.965348     -56.998241     -107.54438      3698145.5    
   1348000   299.73774      0.89345912     0.68054257     1.5740017      188.75596      107.59908      182.28394     -287.11971     -157.72332     -131.47703      289.27099     -133.35959     -168.28603      3702180.9    
   1349000   300.03799      0.89435409     0.67991382     1.5742679      188.90415      107.58258      182.32788     -158.28096     -80.827951      41.647876     -52.623149     -28.266045     -301.29013      3705412.4    
   1350000   299.48056      0.8926925      0.68034655     1.573039       188.84336      107.57744      182.30353      114.14325     -121.2583       47.145793      31.211189     -75.294859     -304.9627       3703548.2    
   1351000   300.28268      0.89508347     0.68091458     1.5759981      188.8769       107.55147      182.22389      457.4941      -105.24513     -213.07038     -24.984412     -207.47268     -330.25557      3701693.9    
   1352000   300.13715      0.89464969     0.68022442     1.5748741      188.9226       107.55119      182.2844       257.62929      96.874365     -48.201993     -251.80632      15.464321     -231.62682      3703809.5    
   1353000   299.73364      0.89344689     0.67890557     1.5723525      188.85211      107.5822       182.2387      -148.82401     -56.162884      52.483982     -51.720165     -86.084919     -410.08985      3702566.5    
   1354000   299.74215      0.89347225     0.6798055      1.5732777      188.70367      107.56496      182.18709      31.144667      141.02531      73.976218     -13.816923      22.904505      16.293924      3698015.7    
   1355000   300.17371      0.89475865     0.68068943     1.5754481      188.78037      107.60416      182.26299      201.31312      234.9964       102.30032      86.909614     -134.98037     -220.47452      3702409.1    
   1356000   299.99517      0.89422645     0.68042602     1.5746525      188.77875      107.56204      182.37436     -311.60633     -303.34715     -101.09672     -9.7480256     -120.3044      -181.20176      3703189.3    
   1357000   300.05261      0.89439767     0.681186       1.5755837      188.84591      107.56451      182.42952     -245.37617     -146.45068     -52.555846      22.510628     -67.573879     -147.09093      3705712.3    
   1358000   299.88173      0.89388832     0.68055345     1.5744418      188.83986      107.55284      182.331       -209.23908     -227.99311      32.336175      84.33635      -113.73345     -182.39514      3703190.6    
   1359000   300.22572      0.89491367     0.68013256     1.5750462      188.83001      107.57325      182.27203     -121.24551     -132.18254      34.321432      9.0953355     -237.99315     -76.823968      3702502.4    
   1360000   300.16409      0.89472998     0.68040388     1.5751339      188.93166      107.59829      182.23493     -375.85018     -16.744731     -63.04516       124.20531     -144.08462     -46.340221      3704603.3    
   1361000   299.68869      0.89331291     0.68293047     1.5762434      188.80961      107.58518      182.32053      105.7195      -74.827555     -10.3169        155.04251      150.08221     -216.60701      3703498.1    
   1362000   299.83604      0.89375211     0.67892717     1.5726793      188.84148      107.58617      182.21183     -63.82984      -162.30791     -89.000492     -10.524262     -136.61521     -198.96003      3701948.8    
   1363000   300.03609      0.89434844     0.67759388     1.5719423      188.80767      107.59146      182.14384     -73.134181      103.07945      12.339282     -0.32998198    -113.17612     -203.11968      3700086.8    
   1364000   299.91596      0.89399037     0.68197209     1.5759625      188.7481       107.59474      182.36103      102.10046     -93.700588     -399.36803      174.99907     -83.798742     -236.58176      3703443      
   1365000   299.87017      0.89385386     0.68275987     1.5766137      188.8082       107.5822       182.34353      186.62511     -202.71327     -56.676822     -101.75938     -61.689488     -261.75639      3703834.9    
   1366000   300.51783      0.89578442     0.67814603     1.5739304      188.87765      107.56613      182.21282     -111.52621     -135.6565       156.17505     -204.26203     -37.178999     -152.42837      3701988.6    
   1367000   299.84609      0.89378208     0.6801398      1.5739219      188.87966      107.57161      182.14742      118.46996      67.979601      14.738061     -24.706788     -34.986458     -260.41966      3700887.8    
   1368000   300.15364      0.89469883     0.67865415     1.573353       188.75977      107.62509      182.21086     -399.27291     -2.5518213      98.256031      224.92329     -95.378213     -2.2830734      3701666.2    
   1369000   300.50108      0.89573448     0.68084786     1.5765823      188.81978      107.53868      182.22816      99.610904      162.50924      110.76653     -186.09403     -103.77834     -185.20629      3700221.2    
   1370000   300.33718      0.89524593     0.68043182     1.5756777      188.77605      107.58315      182.2356       251.3289       81.825898     -18.863062     -92.882059     -49.252542     -295.57335      3701045.2    
   1371000   299.56032      0.89293027     0.68064116     1.5735714      188.7803       107.5896       182.2989      -174.95488     -161.4732      -180.30463      88.573274     -185.4285      -276.55593      3702636      
   1372000   299.69658      0.89333641     0.67771398     1.5710504      188.78007      107.59         182.19977     -207.82433     -14.428826      272.58575      92.724473     -153.99415     -167.29952      3700631.6    
   1373000   300.15146      0.89469232     0.68012838     1.5748207      188.78647      107.5736       182.21615     -76.365619      97.076021      92.991893      67.240654     -2.4310282     -113.27146      3700525.6    
   1374000   300.29039      0.89510644     0.67852742     1.5736339      188.81014      107.58665      182.23844      10.343601      107.68641      77.141573      9.5754468     -63.568694     -272.12282      3701891.5    
   1375000   300.84546      0.896761       0.68075169     1.5775127      188.79261      107.59182      182.37586     -77.771523     -50.360905     -36.339235      297.49748     -184.80785     -149.15545      3704517      
   1376000   300.71111      0.89636055     0.67917139     1.5755319      188.81378      107.56779      182.20223     -18.107771      78.539722      52.868642      212.3177      -116.5518      -194.1546       3700578.5    
   1377000   299.78028      0.89358592     0.67924304     1.572829       188.77899      107.55948      182.25919     -59.117063     -40.724714     -139.81047     -127.37002      36.080447     -179.69831      3700767.6    
   1378000   299.48008      0.89269107     0.67990137     1.5725924      188.66346      107.59763      182.21006     -116.32947     -30.499895     -4.982581       298.7741      -94.549601     -287.69154      3698817.1    
   1379000   300.46552      0.89562847     0.68174977     1.5773782      188.77548      107.56935      182.22553      162.35533      214.02664      108.76922      5.7217626     -125.32467     -47.311386      3700354.7    
   1380000   299.44915      0.89259887     0.68037408     1.5729729      188.88835      107.55705      182.24349     -92.284184     -6.6291387      148.59611      61.711732     -163.87322     -170.39306      3702508.5    
   1381000   299.67842      0.89328228     0.67684581     1.5701281      188.89093      107.54811      182.20797      7.8348039      223.5457       126.60407     -87.272027     -38.075161     -126.99084      3701530      
   1382000   300.12926      0.89462615     0.67927877     1.5739049      188.86556      107.57028      182.19144     -200.88957     -280.6132      -193.19181     -25.525012      0.83451932    -283.64957      3701459.7    
   1383000   300.54439      0.89586358     0.67997461     1.5758382      188.86777      107.54479      182.27773      65.450377     -97.458889      76.167456     -235.09448     -74.626116     -143.28179      3702378.8    
   1384000   299.96154      0.8941262      0.67877059     1.5728968      188.71894      107.58248      182.39554      125.30693     -306.93988     -84.173557      29.059426     -181.63311     -185.1718       3703149.8    
   1385000   299.74986      0.89349524     0.68022362     1.5737189      188.7806       107.56451      182.14917     -88.715916      47.72383       141.37778      120.48622     -2.1821648     -187.24432      3698737.9    
   1386000   300.16963      0.8947465      0.67987617     1.5746227      188.7505       107.61292      182.12489      122.91878     -189.90217      80.631764      107.62299     -219.62848     -109.94652      3699319.2    
   1387000   299.87758      0.89387594     0.6783839      1.5722598      188.81472      107.54589      182.2121       40.067088     -108.84873     -40.680165      55.259313     -15.777424     -123.34854      3700043.8    
   1388000   300.12531      0.8946144      0.67918804     1.5738024      188.76006      107.60263      182.35383     -169.78846     -61.94232       156.53232      314.85579     -6.8203502     -138.95263      3703803.2    
   1389000   299.71502      0.8933914      0.6782495      1.5716409      188.81593      107.59849      182.26598      20.554663      69.151144     -51.171384      147.82874     -29.240174     -80.822222      3702971.9    
   1390000   299.37661      0.89238265     0.67923972     1.5716224      188.78588      107.59228      182.21744     -96.453724     -292.45965      74.05657       75.605497      57.30215      -271.19579      3701182.8    
   1391000   300.03341      0.89434044     0.67990438     1.5742448      188.77181      107.57715      182.09124      175.27085      45.118879     -32.658903      9.9874714      4.9015746     -264.62237      3697824.2    
   1392000   299.71803      0.89340035     0.67794585     1.5713462      188.815        107.60009      182.18175     -148.94595     -184.07837      11.685556     -36.538702     -280.13317     -94.290704      3701297.7    
   1393000   300.75226      0.8964832      0.67963028     1.5761135      188.70698      107.57922      182.1944       249.59212      69.8989       -5.1739474     -197.45225     -167.16783     -140.83184      3698719.3    
   1394000   300.38819      0.89539799     0.67848678     1.5738848      188.81122      107.58544      182.15437     -208.81242     -60.652974     -149.52694     -6.9251973     -132.19211     -328.53092      3700163.2    
   1395000   300.38488      0.89538811     0.67843536     1.5738235      188.73693      107.60548      182.20084      15.489183      2.2635369      210.28862     -70.45024      -51.77615      -244.12744      3700340.2    
   1396000   299.35464      0.89231718     0.67715205     1.5694692      188.7838       107.56142      182.1355       27.782924     -0.010132621   -22.621766      164.77824     -65.913259     -181.32727      3698417      
   1397000   299.30817      0.89217864     0.68007578     1.5722544      188.81075      107.61626      182.17353     -100.87001     -267.81426     -208.43092      88.353552      10.396604     -91.727755      3701603.3    
   1398000   300.06666      0.89443955     0.67925028     1.5736898      188.82964      107.59155      182.19599     -52.513729     -118.10272      71.480304      51.240253     -157.20818     -341.29471      3701579.9    
   1399000   299.91597      0.89399039     0.67847876     1.5724691      188.82104      107.59153      182.20731     -63.656409     -242.31344     -106.84818     -24.407859     -78.517263     -144.7485       3701640.7    
   1400000   299.36189      0.89233879     0.68011815     1.5724569      188.86058      107.57805      182.24159     -231.95625     -283.25207     -140.17625      91.002368     -154.77767     -140.3228       3702648.5    
   1401000   299.90352      0.89395326     0.67891193     1.5728652      188.89619      107.5393       182.21111     -24.440486      111.1316       25.260683      96.621785     -61.263624     -157.34789      3701393.5    
   1402000   299.85392      0.89380542     0.67908935     1.5728948      188.88355      107.55846      182.14777     -107.58274      302.04935      240.25924     -131.74642     -80.103483     -208.57575      3700518.6    
   1403000   299.13602      0.89166551     0.67972714     1.5713927      188.81189      107.5574       182.17053      269.63457     -189.67695     -75.073923     -37.850383     -48.616151     -397.36947      3699540.2    
   1404000   299.16661      0.89175669     0.68023733     1.571994       188.77456      107.57252      182.2487       21.829975     -51.65757      -109.03851     -185.61947     -79.122094     -157.62736      3700916.2    
   1405000   300.08285      0.89448783     0.68102371     1.5755115      188.85737      107.57141      182.27702      351.09349     -159.01176     -169.56737     -44.352229     -2.3586322     -156.36428      3703076.9    
   1406000   299.94005      0.89406215     0.67771415     1.5717763      188.7846       107.59474      182.18284      58.920174     -58.099673      133.1457      -173.50278     -164.23991     -268.46459      3700539.7    
   1407000   300.25638      0.89500507     0.68046182     1.5754669      188.82213      107.54746      182.33359      175.30202      114.83368     -91.651276     -136.46623      15.370086     -277.62861      3702710.2    
   1408000   300.81685      0.89667573     0.68072382     1.5773995      188.8145       107.573        182.32122     -206.54324      236.03784     -87.436486     -1.3691431     -81.414274     -413.02721      3703188.7    
   1409000   299.81597      0.8936923      0.67959985     1.5732922      188.8392       107.53792      182.16525      73.302615      409.18683      117.85184     -5.0567039     -92.601211     -241.51777      3699298      
   1410000   300.29032      0.89510624     0.68071327     1.5758195      188.75354      107.5801       182.15388      428.51365      90.511783      266.6978      -174.49253     -19.300469     -91.819879      3698839.4    
   1411000   300.24473      0.89497036     0.68012404     1.5750944      188.81704      107.56523      182.29229     -27.187539     -48.625497     -10.028864      115.80451     -15.67927      -216.56126      3702383.6    
   1412000   299.1786       0.89179242     0.67833675     1.5701292      188.84855      107.5862       182.20104      170.7999       61.947504     -57.805274      275.51903     -156.90624     -196.73848      3701869.4    
   1413000   300.08344      0.89448958     0.67814548     1.5726351      188.65204      107.57863      182.20299      266.03766      120.21622     -140.94809     -73.413071     -12.552485     -145.52953      3697796.5    
   1414000   300.00511      0.8942561      0.67803015     1.5722862      188.73836      107.60292      182.22915     -105.84408     -39.533948      116.87049     -261.41268     -147.04624     -409.93772      3700855.2    
   1415000   299.16545      0.89175324     0.67863042     1.5703837      188.80363      107.62642      182.18161     -93.805865     -269.03408     -178.50381      9.4640626     -101.15146     -215.0852       3701977.5    
   1416000   300.13434      0.89464131     0.67927571     1.573917       188.78681      107.56085      182.27386      138.96462      29.34116      -28.568505     -46.451643     -143.51237     -146.9062       3701266      
   1417000   299.74699      0.89348669     0.67950009     1.5729868      188.79458      107.53004      182.21024     -194.84899      106.94046     -116.08155      65.791131     -191.99293     -177.15917      3699066.3    
   1418000   300.40901      0.89546005     0.68003639     1.5754964      188.857        107.52757      182.23977     -208.20112      131.59088      4.9822433      81.54373      -162.20445     -60.716575      3700804      
   1419000   299.94375      0.8940732      0.67983047     1.5739037      188.78583      107.54985      182.22564      198.23442      270.05873      208.69202      74.102193     -126.14213     -305.39788      3699889.1    
   1420000   299.7519       0.89350132     0.67919604     1.5726974      188.78498      107.56348      182.244        213.24789     -60.697369      65.675543      106.26927     -64.945553     -234.35476      3700713.9    
   1421000   300.12346      0.89460886     0.67884        1.5734489      188.84836      107.57053      182.2603      -213.14049     -347.38371     -76.360107      8.1569974      122.80747     -307.28808      3702530.1    
   1422000   300.17041      0.89474882     0.67885685     1.5736057      188.91368      107.57396      182.26183      21.340596     -160.84079      132.95291     -97.728287     -44.992422     -354.35845      3703959.9    
   1423000   299.53735      0.8928618      0.68043818     1.5733         188.83353      107.54825      182.2386      -78.299446     -24.403806      17.450286      249.85649     -137.87926     -204.28039      3701031.8    
   1424000   299.99595      0.89422878     0.68095677     1.5751855      188.84733      107.55527      182.19665      306.16011      114.54324      93.930219      90.70134      -86.415608     -138.61706      3700692.1    
   1425000   299.85286      0.89380226     0.68234091     1.5761432      188.84903      107.60688      182.22027      133.7539       259.33585      24.777871      123.66897     -38.386081     -140.73081      3702981      
   1426000   300.27102      0.89504872     0.67706943     1.5721182      188.77906      107.59669      182.18798     -81.517042      45.465464      35.165172     -129.03544     -106.12938     -360.59052      3700602.5    
   1427000   300.30158      0.89513981     0.68005474     1.5751946      188.85037      107.5985       182.25123      189.24429     -108.6805      -33.668329     -98.753202     -198.29551     -249.3182       3703348.1    
   1428000   299.58136      0.89299298     0.67871761     1.5717106      188.87936      107.57514      182.22273      76.972837     -7.6457606     -169.62638     -18.120819      55.372824     -231.46969      3702533.2    
   1429000   300.3312       0.8952281      0.67768814     1.5729162      188.85585      107.52262      182.2347      -38.55421      -65.374116     -22.664638     -141.96934     -191.52211     -195.48654      3700508.1    
   1430000   300.35376      0.89529534     0.67905048     1.5743458      188.84343      107.52109      182.28682     -50.165741      73.526751     -3.3282271     -9.3506076     -186.92783     -274.25739      3701270.4    
   1431000   299.66312      0.89323669     0.67963855     1.5728752      188.81236      107.5456       182.10714      142.40089      424.24041     -4.9000033     -107.27183     -91.651819     -175.60049      3697856.6    
   1432000   299.8675       0.89384592     0.67965551     1.5735014      188.81467      107.58896      182.2964      -228.63565     -379.91808     -363.11155      36.572062     -61.558779     -228.9365       3703237.5    
   1433000   299.63035      0.89313901     0.67891067     1.5720497      188.79252      107.55475      182.17145     -63.131352      62.896673     -72.714653     -115.67287      9.1963101     -154.86885      3699088.2    
   1434000   300.32847      0.89521996     0.68086599     1.5760859      188.78106      107.57606      182.26156      110.77956     -22.439133     -83.553134     -15.133209     -128.24884     -231.19714      3701426.4    
   1435000   300.15954      0.89471642     0.67669561     1.571412       188.85669      107.58294      182.30655     -253.99616     -34.470204     -68.285036     -118.94074     -113.2594      -220.32172      3704060.2    
   1436000   299.85593      0.89381142     0.67848301     1.5722944      188.8439       107.58573      182.20018      481.32682      98.714666     -18.542968     -29.358515     -146.91967     -191.01105      3701744.4    
   1437000   300.09021      0.89450976     0.67872799     1.5732377      188.79438      107.61026      182.25776     -174.27212     -196.71687     -60.783145     -28.12226      -90.582042     -324.69835      3702787.5    
   1438000   299.79726      0.89363653     0.67990664     1.5735432      188.91125      107.59283      182.2551      -110.67981     -76.520088     -25.737341      39.321715     -62.635286     -218.62939      3704425.5    
   1439000   299.87714      0.89387465     0.68005624     1.5739309      188.79211      107.56041      182.24005     -59.433867     -520.58485      11.427528      11.152629     -173.15975     -302.22081      3700667.8    
   1440000   299.73875      0.89346212     0.67872805     1.5721902      188.87377      107.50738      182.21321     -251.47013      192.08143      69.707467      27.961782      13.157286     -232.84156      3699898.4    
   1441000   299.47049      0.89266249     0.68062957     1.5732921      188.86103      107.53502      182.32831     -48.501501     -44.304319      126.82412     -36.426092     -169.28114     -332.11536      3702937.3    
   1442000   299.49698      0.89274146     0.68214525     1.5748867      188.80696      107.57503      182.3991       3.4793361     -10.501644     -81.3304        120.34784     -122.53527     -146.91258      3704692.4    
   1443000   300.07402      0.89446151     0.67884922     1.5733107      188.86917      107.54578      182.27655      251.1377       184.59498      67.278562      46.78396      -10.038349     -218.14414      3702416.1    
   1444000   299.77265      0.89356317     0.67843762     1.5720008      188.83424      107.57591      182.15392      147.9062       413.66356      83.388496     -26.725949     -141.3686      -364.811        3700277.5    
   1445000   300.75061      0.89647827     0.6785882      1.5750665      188.90214      107.57156      182.31227     -301.03516     -131.81529      129.64037     -74.066491     -52.539208     -380.45914      3704676.1    
   1446000   299.84449      0.89377733     0.68222009     1.5759974      188.84903      107.58853      182.1941       192.97326     -53.108951      68.858041     -100.50959     -106.92728     -190.06557      3701817.8    
   1447000   300.48463      0.89568545     0.67925936     1.5749448      188.77386      107.51864      182.24906      516.13459      57.794047      101.39686      7.9463461     -151.47596     -199.26094      3699056.1    
   1448000   300.25845      0.89501124     0.67658645     1.5715977      188.761        107.55758      182.30218      118.22171      99.458419      107.7081      -177.03992     -73.692317     -248.58968      3701222.3    
   1449000   300.04318      0.89436956     0.68055449     1.574924       188.9209       107.53388      182.29416      54.706579     -128.18417     -33.604646      133.39879     -51.863849     -191.33184      3703378.3    
   1450000   299.6445       0.89318119     0.67943626     1.5726175      188.87995      107.54657      182.24543      342.17443      115.9083      -122.52179     -136.70316     -79.421833     -230.44034      3702022.5    
   1451000   299.70719      0.89336804     0.68137315     1.5747412      188.83235      107.57774      182.28933     -138.79703     -581.37823      36.191731      156.02031      96.734478     -142.13474      3703054.2    
   1452000   300.04841      0.89438515     0.67972155     1.5741067      188.79637      107.52678      182.33229      648.8442       349.923        79.102253     -14.601213     -72.439519     -329.49229      3701467      
   1453000   299.81952      0.89370287     0.68024554     1.5739484      188.86214      107.56252      182.33745     -315.32033     -43.814421      24.525586     -62.097964     -205.87252     -155.60786      3704092      
   1454000   300.00629      0.8942596      0.67776683     1.5720264      188.83268      107.5889       182.22979     -105.54362     -74.384214     -142.51484     -97.381569     -111.02006     -277.26286      3702235      
   1455000   299.83146      0.89373848     0.68032074     1.5740592      188.80481      107.57153      182.21597     -15.755221     -118.42372     -81.490391      166.13726     -77.334752     -216.1608       3700810.5    
   1456000   299.82786      0.89372774     0.67953556     1.5732633      188.86406      107.53406      182.26936      365.57212      179.40275      281.28788     -15.774079     -12.873268     -139.64009      3701766.5    
   1457000   300.48235      0.89567866     0.67961901     1.5752977      188.8072       107.58684      182.33542      17.548686     -140.22399     -163.42079      152.97137     -196.76489     -164.64012      3703810.5    
   1458000   299.90255      0.89395038     0.68018307     1.5741334      188.85307      107.54478      182.30525     -10.782668     -223.13749     -39.074538      43.463663     -265.94496     -244.348        3702649.3    
   1459000   300.35167      0.89528913     0.68192111     1.5772102      188.92141      107.51718      182.21694      54.23046       518.65979      91.983824     -0.035660884   -124.00336     -319.89479      3701244.7    
   1460000   300.00126      0.89424462     0.67992214     1.5741668      188.79615      107.54244      182.26999      85.754569     -26.376208      55.182788     -94.502949     -233.17044     -149.11928      3700736.8    
   1461000   300.3255       0.89521111     0.68114213     1.5763532      188.73905      107.60409      182.4829       311.68281     -174.90367     -239.13886     -31.305121      19.476745     -205.84862      3706062.6    
   1462000   299.97878      0.8941776      0.68054941     1.574727       188.7765       107.54734      182.32172      0.60383722    -166.89827      96.29149       4.2421118     -139.79912     -212.62191      3701570.5    
   1463000   300.06518      0.89443516     0.68015816     1.5745933      188.88984      107.57858      182.20292      4.0842708     -102.18608     -38.292983      11.08691      -174.59233     -295.72446      3702454.5    
   1464000   300.04423      0.8943727      0.68347545     1.5778482      188.82824      107.5943       182.33709     -11.607105      85.968522      25.975306     -44.221728     -193.89785     -226.1166       3704514      
   1465000   299.96148      0.89412603     0.68312452     1.5772506      188.8575       107.57917      182.44807     -48.93318       53.490665     -23.384391     -9.1226309     -15.769971     -222.79694      3706821.8    
   1466000   299.86603      0.89384151     0.67952148     1.573363       188.85744      107.60213      182.30575      289.90143      17.557866     -103.0637      -64.771799     -133.10666     -197.71656      3704719.4    
   1467000   299.99157      0.89421572     0.68276885     1.5769846      188.92982      107.59059      182.44428     -161.924       -157.6262      -32.640101     -8.6149717     -65.974863     -359.25714      3708557.7    
   1468000   299.1916       0.89183117     0.68047305     1.5723042      188.83423      107.58997      182.36277      72.305927      222.51395      68.321715     -41.089807     -189.42584     -81.887691      3705003.9    
   1469000   300.01317      0.89428011     0.67909005     1.5733702      188.83584      107.53841      182.34928      247.65187      142.97684      116.19207     -39.18625      -81.713906     -141.39623      3702986.1    
   1470000   299.90613      0.89396105     0.68091927     1.5748803      188.8038       107.5245       182.35453      225.02624     -330.17786      118.48938      90.74908      -45.565058     -223.36412      3701985.6    
   1471000   299.27999      0.89209464     0.6793626      1.5714572      188.84162      107.56781      182.16708     -291.11977      77.009861      264.44452     -5.704945      -151.75417     -328.06835      3700410.8    
   1472000   299.71269      0.89338445     0.68158163     1.5749661      188.82671      107.56268      182.28125     -130.78108     -261.02217     -26.086665      12.831976     -64.410131     -184.27913      3702261      
   1473000   299.87343      0.89386359     0.6793202      1.5731838      188.69588      107.59543      182.39712      150.99114     -196.74606      26.968051     -69.693941     -78.889495     -278.51578      3703174.8    
   1474000   299.53425      0.89285254     0.68198203     1.5748346      188.92155      107.61259      182.44559      217.06296     -274.65805      9.6803282      33.117621     -100.56821     -205.00754      3709180.3    
   1475000   300.00903      0.89426778     0.68020196     1.5744697      188.86424      107.57893      182.23828      160.23727      399.40783     -73.675778      203.00044     -44.8783       -335.55545      3702683.3    
   1476000   300.02613      0.89431875     0.68273361     1.5770524      188.87364      107.59076      182.30888     -6.8307792      159.91663     -154.3875       13.471119     -52.469961     -187.30904      3704709.3    
   1477000   300.27384      0.89505712     0.68287017     1.5779273      188.95319      107.56685      182.47625     -94.089699     -108.35884     -169.44393     -150.96449     -112.97334     -182.25659      3708848      
   1478000   299.56534      0.89294521     0.6784501      1.5713953      188.78429      107.60809      182.4032      -411.28176     -228.77538     -4.0390162     -41.784796     -138.84744     -256.18884      3705469.3    
   1479000   300.52744      0.89581305     0.67985261     1.5756657      188.84257      107.55247      182.26209     -75.417942     -133.53002      84.752671     -45.472786     -68.481903     -207.47949      3701831.4    
   1480000   300.3714       0.89534793     0.67983258     1.5751805      188.84098      107.52566      182.24113      14.9482       -46.081434      84.630269      220.57494     -229.9899      -293.27095      3700452      
   1481000   299.73501      0.89345098     0.68164028     1.5750913      188.86787      107.53277      182.45955     -18.208288     -126.26497      131.94109     -16.154564     -107.6215      -284.18327      3705659.5    
   1482000   299.79251      0.89362236     0.68379668     1.577419       188.82786      107.57251      182.42094     -111.49265     -136.97014     -63.469592     -94.681911     -104.48475     -265.23582      3705459.6    
   1483000   299.69609      0.89333497     0.68090228     1.5742372      188.83804      107.57302      182.34288      405.82252     -30.571044     -102.06805     -15.70193      -67.783543     -354.30522      3704090.9    
   1484000   299.81706      0.89369555     0.68093047     1.574626       188.83249      107.62029      182.28286      308.48945     -52.638177      39.23559      -20.065075     -52.46845      -214.63727      3704390.2    
   1485000   300.26219      0.89502239     0.6814248      1.5764472      188.84501      107.55917      182.39521     -140.68371     -215.9471      -2.6973228     -149.58724     -58.477973     -331.11591      3704813.9    
   1486000   300.0999       0.89453865     0.68123258     1.5757712      188.92547      107.51104      182.34707     -0.11974686     172.32157     -2.9282764     -0.31293767    -119.14291     -255.33047      3703756.1    
   1487000   299.90614      0.89396107     0.6804157      1.5743768      188.88284      107.57842      182.34317     -200.95476      83.782337      17.890827     -13.647086     -170.60777     -271.40667      3705161.5    
   1488000   299.94459      0.89407569     0.68286608     1.5769418      188.89067      107.57964      182.43326      69.087616      209.26248     -89.331392     -171.36547     -131.08148     -137.29735      3707188.1    
   1489000   300.20545      0.89485326     0.68121022     1.5760635      188.85739      107.57766      182.39553      67.363989      245.55838      70.075142     -54.803332     -7.9821423     -277.61487      3705700      
   1490000   300.14946      0.89468637     0.68146246     1.5761488      188.91677      107.61935      182.28436      110.45485      70.294807      158.54961     -133.07937     -116.11075     -177.84425      3706041.5    
   1491000   299.6489       0.89319431     0.68105987     1.5742542      188.79257      107.57289      182.43171      84.691081     -60.496335     -115.80298      44.072488     -96.253712     -246.73771      3704998.7    
   1492000   300.18741      0.89479949     0.67990012     1.5746996      188.88498      107.58748      182.39815      271.32521     -70.438242     -18.277871      175.83635     -84.298019     -290.74446      3706632.9    
   1493000   299.52259      0.89281779     0.68244445     1.5752622      188.86301      107.53989      182.33398      427.57659      69.623933      58.355621     -80.749943     -117.20061     -166.5633       3703259.2    
   1494000   300.69646      0.89631686     0.68150691     1.5778238      188.90213      107.53707      182.3682       8.3253976      69.218957     -153.5453      -107.51292     -112.7199      -156.76608      3704624.2    
   1495000   300.57809      0.89596403     0.68092598     1.57689        188.88565      107.58815      182.39223     -401.22755      102.71545     -127.21462      7.2403993     -71.523696     -296.1992       3706548.8    
   1496000   300.83944      0.89674307     0.6800891      1.5768322      188.81483      107.58202      182.32615     -318.68219     -261.97444      138.58133      5.3835914     -15.838396     -217.87021      3703605.9    
   1497000   299.73253      0.89344358     0.68134688     1.5747905      188.92167      107.61686      182.2397       98.504882      305.52109     -25.75189       241.02762     -11.250353     -312.67027      3705144      
   1498000   299.77032      0.89355623     0.68174422     1.5753005      188.82594      107.60974      182.38179      88.725477     -128.66748      46.927214     -214.16554     -147.72364     -223.44098      3705908.6    
   1499000   300.32251      0.8952022      0.68203251     1.5772347      188.89977      107.58427      182.38732      177.44215      449.46257      185.8715      -132.14674      0.13568955    -188.8847       3706592.6    
   1500000   299.58962      0.89301759     0.68158291     1.5746005      188.93318      107.64657      182.3155      -68.671205      24.20453       139.84847     -12.130345     -40.611278     -244.14937      3707934.3    
Loop time of 23324.9 on 256 procs for 1500000 steps with 414720 atoms

Performance: 5.556 ns/day, 4.319 hours/ns, 64.309 timesteps/s, 26.670 Matom-step/s
99.4% CPU use with 256 MPI tasks x no OpenMP threads

MPI task timing breakdown:
Section |  min time  |  avg time  |  max time  |%varavg| %total
---------------------------------------------------------------
Pair    | 10232      | 10373      | 10546      |  60.5 | 44.47
Bond    | 456.59     | 463.54     | 479.01     |  16.9 |  1.99
Kspace  | 3351.5     | 3598.6     | 3822       | 176.8 | 15.43
Neigh   | 4964.1     | 5071.8     | 5175.5     |  69.9 | 21.74
Comm    | 2252.5     | 2597.7     | 2986.7     | 319.0 | 11.14
Output  | 1.1462     | 4.1511     | 4.4248     |  12.2 |  0.02
Modify  | 901.33     | 1056.4     | 1154.3     | 160.1 |  4.53
Other   |            | 159.7      |            |       |  0.68

Nlocal:           1620 ave        1647 max        1587 min
Histogram: 1 3 8 21 47 81 54 26 13 2
Nghost:        8581.57 ave        8657 max        8488 min
Histogram: 4 7 16 31 37 46 57 35 13 10
Neighs:         381635 ave      389542 max      372579 min
Histogram: 4 6 14 28 58 52 49 27 13 5

Total # of neighbors = 97698438
Ave neighs/atom = 235.57687
Ave special neighs/atom = 9.4
Neighbor list builds = 206765
Dangerous builds = 19
unfix           3

#======================== unload
variable 	yz_new		equal	yz
variable	yz_nn		equal	${yz_new}
variable	yz_nn		equal	48.2718917220364
variable	difference	equal	${yz_nn}-${yzzo}
variable	difference	equal	48.2718917220364-${yzzo}
variable	difference	equal	48.2718917220364--6.30576165965616
variable	ratio		equal	v_difference/v_yz_nn
variable	srate2		equal	v_ratio/${steps}
variable	srate2		equal	v_ratio/1500000
print "yz ${yz_nn}"
yz 48.2718917220364
print "strainrate ${srate2}"
strainrate 7.53753394707993e-07


#fix             4 all deform 1 yz erate -${srate2} units box remap x
fix             4 all deform 1 yz erate -${srate} units box remap x flip no
fix             4 all deform 1 yz erate -2e-07 units box remap x flip no
run             ${steps}
run             1500000
PPPM initialization ...
  using 12-bit tables for long-range coulomb (../kspace.cpp:342)
  G vector (1/distance) = 0.29202899
  grid = 32 32 60
  stencil order = 6
  estimated absolute RMS force accuracy = 3.4625336
  estimated relative force accuracy = 0.010427317
  using double precision KISS FFT
  3d grid and FFT values/proc = 2310 256
Generated 3 of 3 mixed pair_coeff terms from arithmetic mixing rule
Per MPI rank memory allocation (min/avg/max) = 18.59 | 18.59 | 18.6 Mbytes
   Step          Temp          KinEng         PotEng         TotEng           Lx             Ly             Lz            Pxx            Pyy            Pzz            Pxy            Pxz            Pyz           Volume    
   1500000   299.58962      0.89301759     0.68158291     1.5746005      188.93318      107.64657      182.3155      -68.671322      24.204558      139.84857     -12.130977     -40.611397     -244.17912      3707934.3    
   1501000   300.17584      0.89476501     0.67840809     1.5731731      188.81761      107.61576      182.35135      27.233065     -85.503113      106.77222     -115.96362     -39.322343     -263.15928      3705334.1    
   1502000   299.77653      0.89357474     0.68067278     1.5742475      188.8573       107.5917       182.27823      7.413794      -109.28632      84.604028     -28.0711       -158.65405     -178.08188      3703798.6    
   1503000   299.31128      0.89218791     0.68029952     1.5724874      188.82395      107.5371       182.3122       152.08589      88.577627      13.637287     -39.234507     -165.69868     -191.48748      3701955      
   1504000   300.46376      0.89562324     0.68165477     1.577278       188.84572      107.54836      182.37731      192.289        172.44594     -137.29275     -17.519489     -140.51336     -309.11776      3704092      
   1505000   299.99403      0.89422307     0.68210178     1.5763248      188.80735      107.60712      182.25547     -138.31436     -126.3658       17.52134       269.87791     -101.57276     -262.88714      3702887.1    
   1506000   299.79727      0.89363656     0.6828128      1.5764494      188.77237      107.62006      182.30394      337.7372       75.881762     -81.664998      22.580057      38.096905     -231.30408      3703631.1    
   1507000   299.97024      0.89415216     0.67988818     1.5740403      188.81023      107.60706      182.37321      124.06692      114.53456     -78.705073     -40.630385     -162.3697      -46.129972      3705333.7    
   1508000   300.79644      0.89661489     0.68173607     1.578351       188.96639      107.54755      182.2838      -198.4408      -18.748999     -97.744455     -315.55845     -145.66449     -237.37089      3704530.3    
   1509000   300.24556      0.89497283     0.68190059     1.5768734      188.83904      107.54389      182.39798      88.760879     -291.29932     -92.359763      38.068125     -163.87459     -281.51934      3704226.7    
   1510000   300.39062      0.89540523     0.67780678     1.573212       188.76564      107.52193      182.37083     -15.011142      118.02843     -86.910667     -23.431955     -117.14371     -250.67926      3701479.6    
   1511000   300.0354       0.89434638     0.68243288     1.5767793      188.88914      107.57519      182.29427     -56.090708     -262.34633     -216.89482      112.67567     -175.0665      -202.92649      3704180.4    
   1512000   300.44158      0.89555713     0.68029401     1.5758511      188.96382      107.56207      182.34076     -333.31354      59.07457       37.717534     -115.21506     -8.8539707     -240.64887      3706138.1    
   1513000   300.17915      0.89477488     0.68106875     1.5758436      188.89139      107.59362      182.31081      353.77622      356.91576      37.096578     -91.938026     -93.21192      -119.54752      3705195.1    
   1514000   301.0228       0.89728962     0.67897733     1.576267       188.85304      107.5858       182.26074      88.691074     -157.7528      -39.037541     -229.47216     -113.19233     -258.28259      3703156.6    
   1515000   299.52819      0.8928345      0.68039142     1.5732259      188.8048       107.6305       182.34273     -159.38035     -155.038       -94.447655      113.86796     -4.3362038     -301.44006      3705414.8    
   1516000   299.50656      0.89277        0.6801474      1.5729174      188.82133      107.57299      182.26662      203.24867      1.9067725      132.9589      -14.106759     -133.79944     -183.46258      3702213.1    
   1517000   299.57197      0.892965       0.67949795     1.5724629      188.93641      107.57412      182.31888     -75.223629     -35.540147     -183.93819      79.110151     -117.04619     -184.27665      3705570.7    
   1518000   300.14818      0.89468255     0.68304412     1.5777267      188.83761      107.54779      182.28275     -263.92216      90.921496     -113.66518      18.885172     -152.90627     -137.77277      3701992.6    
   1519000   300.488        0.89569551     0.68119966     1.5768952      188.67849      107.61638      182.25555     -223.77254     -70.706761     -268.1431       79.644795     -14.674329     -65.123039      3700680.1    
   1520000   300.20781      0.89486029     0.6785133      1.5733736      188.71027      107.59554      182.26396     -43.537413      464.94442     -18.098026      230.68134     -48.466769     -225.74225      3700757.1    
   1521000   300.34749      0.89527666     0.68094483     1.5762215      188.76465      107.59335      182.34607     -44.248032      37.585147     -160.58408     -97.603147      21.065219     -260.30924      3703416      
   1522000   299.67968      0.89328603     0.67976395     1.57305        188.84208      107.55899      182.15513     -206.66827     -23.934805      220.2142       186.30005     -37.500515     -222.32804      3699873.8    
   1523000   299.64861      0.89319344     0.68090387     1.5740973      188.74744      107.55014      182.19315      82.9029        152.78245      139.60816      205.65875     -65.361405     -134.03248      3698486.9    
   1524000   300.32614      0.89521302     0.67964899     1.574862       188.85268      107.54979      182.19912      49.678334     -48.493795     -98.566848     -93.778672     -75.648078     -121.12914      3700658.5    
   1525000   299.19756      0.89184894     0.67868987     1.5705388      188.72448      107.61574      182.10809      222.04672     -8.9293253      67.417975     -192.60385     -82.940599     -188.53357      3698565.3    
   1526000   299.80313      0.89365402     0.67681351     1.5704675      188.76066      107.63505      182.2473      -7.1251971     -58.553919      81.913313     -9.859675      -177.61866     -133.9409       3702766      
   1527000   299.86437      0.89383658     0.6786579      1.5724945      188.75428      107.58583      182.22493     -160.6404      -24.597841     -111.51983      123.42163     -68.293991     -176.86858      3700493.6    
   1528000   299.33672      0.89226376     0.68017173     1.5724355      188.79534      107.58081      182.09987      9.8040948     -50.838483      34.7806        16.444244     -90.681189     -301.927        3698585.9    
   1529000   299.59892      0.89304533     0.67910013     1.5721455      188.79354      107.59293      182.12494     -98.433303     -168.12086     -59.897472      190.82031     -66.601494     -227.06581      3699476.7    
   1530000   300.13708      0.89464946     0.67954894     1.5741984      188.84726      107.60056      182.29738     -157.78904     -374.55471      124.00379      77.99755      -179.68567     -85.675752      3704295.6    
   1531000   300.19208      0.8948134      0.6806777      1.5754911      188.68622      107.61775      182.30598     -122.44024      21.333774     -146.52012     -43.835922     -58.068766     -249.41062      3701902.9    
   1532000   300.43759      0.89554524     0.67942949     1.5749747      188.79262      107.59993      182.24014     -201.24144     -78.341713      56.726015     -117.72173     -219.30799     -357.30299      3702039.5    
   1533000   300.52131      0.89579479     0.67821027     1.5740051      188.78775      107.59556      182.1872       50.727019     -230.41984      32.979119      94.997948     -205.81336     -267.73676      3700718.3    
   1534000   300.26952      0.89504423     0.67955887     1.5746031      188.74272      107.56946      182.29362      92.887062      296.70451      88.714413      7.9655187     -20.548188     -112.18379      3701098.8    
   1535000   300.4402       0.89555301     0.68047426     1.5760273      188.79905      107.59489      182.19077      24.82739       252.66643     -51.482917      211.10902     -185.48867     -325.4565       3700989      
   1536000   299.98919      0.89420863     0.67738052     1.5715891      188.70258      107.58583      182.12949      376.59494      286.67661      100.04564     -43.295719     -172.31505     -37.066608      3697542.7    
   1537000   299.77163      0.89356014     0.67934975     1.5729099      188.81368      107.62328      182.22696      276.61158     -102.7853      -188.40893      6.4129214     -73.040274     -180.58852      3702988.2    
   1538000   300.52195      0.89579668     0.67942346     1.5752201      188.82679      107.61145      182.29391     -54.532365     -315.53656     -198.31661     -10.486015     -92.191398     -243.85346      3704198.4    
   1539000   299.74828      0.89349052     0.67929841     1.5727889      188.80577      107.59495      182.23651     -113.94511      398.68264      87.324754     -91.210895     -64.051958     -173.83401      3702052.3    
   1540000   300.25989      0.89501554     0.68156946     1.576585       188.79034      107.56942      182.28286     -228.10052      0.73612765    -43.588099      59.593406      52.988439     -214.03868      3701812.5    
   1541000   300.57953      0.89596834     0.68002727     1.5759956      188.79655      107.57284      182.25072      305.41405     -105.08199      231.87857      8.2240042     -35.812389     -219.00052      3701399.3    
   1542000   300.60362      0.89604013     0.67954284     1.575583       188.79403      107.61457      182.21231     -37.891886     -102.31856      112.8856      -3.8289775     -113.17568     -283.11528      3702005.5    
   1543000   300.26935      0.89504374     0.67930747     1.5743512      188.79536      107.59755      182.17227      88.137017      189.91813      97.857397      231.85074     -127.90971     -158.43714      3700632.3    
   1544000   299.44653      0.89259108     0.67828871     1.5708798      188.6416       107.64208      182.27229      167.02226      256.19789     -113.30908      25.237622     -112.79904     -122.51341      3701180      
   1545000   299.75851      0.89352104     0.68163107     1.5751521      188.78455      107.56901      182.20953      191.7628       16.199883     -59.164223     -16.928274      9.5353196     -197.74842      3700195.8    
   1546000   300.34135      0.89525837     0.67835102     1.5736094      188.79727      107.58703      182.16744      384.83931     -216.3936       215.04929      199.02089     -112.48299     -226.31361      3700210.2    
   1547000   299.99826      0.89423568     0.67859718     1.5728329      188.78209      107.56613      182.12539      116.89141      166.43005      39.980385     -175.37735     -12.341819     -243.72903      3698340      
   1548000   300.08609      0.89449747     0.6789728      1.5734703      188.76957      107.56679      182.1823       238.77831      56.623676      36.116053     -48.812634     -132.02335     -287.23814      3699273.1    
   1549000   300.99327      0.89720159     0.67563653     1.5728381      188.66981      107.62054      182.21991      65.71219       303.31537     -80.547627     -27.699737     -36.175534     -85.545027      3699929.3    
   1550000   300.0747       0.89446352     0.68099071     1.5754542      188.81546      107.62213      182.27791      2.1859484     -72.924073     -75.251161      156.14811     -128.22981     -139.53621      3704018.5    
   1551000   299.8871       0.89390433     0.68082713     1.5747315      188.7153       107.5684       182.16853     -195.53542      98.283173     -247.07707     -352.83804      7.1291113     -206.00616      3697985.4    
   1552000   300.5641       0.89592234     0.68252491     1.5784472      188.83836      107.5906       182.23572      139.36875      356.58744      11.181363      51.374284     -57.063819     -196.00117      3702525.5    
   1553000   299.5457       0.89288669     0.68269012     1.5755768      188.75499      107.63448      182.22682      201.45139      2.3767231      39.42944       9.5842199     -95.659961     -62.099391      3702219.2    
   1554000   300.02151      0.89430496     0.67865011     1.5729551      188.81716      107.61794      182.16506      171.0345       154.57997     -73.697725     -159.06379     -83.096614     -69.735604      3701614.6    
   1555000   299.77428      0.89356802     0.6810908      1.5746588      188.84694      107.58319      182.25544      137.2215      -235.85362     -88.52634      -135.18154     -25.442154     -118.41797      3702839.4    
   1556000   300.93589      0.89703057     0.6795964      1.576627       188.80772      107.59773      182.10964      157.90644     -98.554815      69.691091     -43.610911     -63.096932     -164.06141      3699608.8    
   1557000   299.78434      0.89359802     0.68108564     1.5746837      188.81839      107.6296       182.14681     -264.72509     -33.489197     -52.196905     -114.26458     -85.560735     -158.51263      3701669      
   1558000   300.42774      0.89551587     0.67922628     1.5747422      188.66333      107.60792      182.02306      19.249809     -202.08881      192.54614      31.720535      36.864684     -225.57921      3695371.9    
   1559000   299.78721      0.89360659     0.68088488     1.5744915      188.73613      107.60586      182.17345     -63.077595      18.009269     -45.344696     -33.144655     -20.98277      -120.71399      3699781.5    
   1560000   300.14502      0.89467314     0.68126873     1.5759419      188.81143      107.62519      182.20922      62.472277     -20.687824     -176.96301      2.594872       12.561007     -150.13689      3702649      
   1561000   300.11615      0.89458707     0.67813381     1.5727209      188.75139      107.58973      182.22817     -52.4938       -235.48023      69.744683      64.762726      17.410855     -124.73898      3700637      
   1562000   299.58134      0.89299292     0.67930921     1.5723021      188.84821      107.59661      182.21232     -202.30477      217.26974      111.94567      125.30986     -115.6644      -199.87644      3702449.9    
   1563000   300.3152       0.89518042     0.67876549     1.5739459      188.75527      107.60592      182.19672      79.194178     -7.441166      -104.91416      201.83312     -96.960126     -114.89125      3700631.2    
   1564000   300.03765      0.89435309     0.67934144     1.5736945      188.84133      107.62134      182.15244     -11.37332      -166.79703     -128.98605     -28.637368     -148.11548     -302.26478      3701949      
   1565000   300.05764      0.89441268     0.67881473     1.5732274      188.76784      107.61015      182.23471     -135.98909     -66.043349     -180.61744      146.99877     -42.483891     -272.10715      3701794.8    
   1566000   300.08747      0.89450159     0.67791766     1.5724193      188.78412      107.57949      182.12858     -132.07621     -235.08474     -71.981449      140.58603     -28.583598     -312.9795       3698903.8    
   1567000   299.89593      0.89393065     0.67750106     1.5714317      188.65854      107.54751      182.108        98.283649      400.28356      184.96304     -105.41379      31.008603     -230.64098      3694927      
   1568000   300.32029      0.89519557     0.68081764     1.5760132      188.7113       107.59102      182.23798      21.640275     -89.378147     -181.04437      24.639666     -165.34372     -122.21414      3700094.3    
   1569000   300.28468      0.89508942     0.68109931     1.5761887      188.69485      107.52644      182.09101     -60.964358     -24.690909     -171.46711     -90.178144     -102.74956     -127.153        3694569.2    
   1570000   300.18617      0.89479581     0.67878736     1.5735832      188.82376      107.53675      182.12202     -38.757549      12.525035      96.004564     -384.66969     -70.459758     -119.09313      3698077.5    
   1571000   300.54954      0.89587893     0.67928249     1.5751614      188.80775      107.60923      182.16709     -290.6286      -67.109339      41.816738      88.573843     -186.10891     -263.87046      3701172      
   1572000   300.084        0.89449125     0.67962141     1.5741127      188.8578       107.59788      182.18744     -48.984027      52.915643     -51.711315     -145.24847     -58.927023     -56.013547      3702176.3    
   1573000   299.83864      0.89375989     0.67850326     1.5722632      188.79759      107.57451      182.14257     -173.08793      103.17193      201.42396      20.560445     -130.36738     -156.8629       3699280.7    
   1574000   299.82024      0.89370503     0.68146809     1.5751731      188.66074      107.58771      182.0962      -147.02373     -119.77089     -73.756391     -222.44476     -15.839689     -181.92872      3696111.8    
   1575000   300.08512      0.89449458     0.67768929     1.5721839      188.86913      107.56673      182.01233     -197.50251      206.8107       34.69279      -25.888757     -84.598793     -136.59532      3697768.7    
   1576000   300.59944      0.89602767     0.6793342      1.5753619      188.76903      107.61411      182.01678      6.498058       249.92155      144.15256     -299.23733      5.267537      -90.955415      3697527.1    
   1577000   300.13244      0.89463564     0.67990047     1.5745361      188.72783      107.60368      182.15668      25.415239      77.889102     -63.489742     -160.94478     -53.875923     -311.65571      3699203      
   1578000   299.43568      0.89255872     0.68064799     1.5732067      188.86049      107.57275      182.26979     -31.379384      228.6944      -1.7580251     -9.4315944     -76.187568     -159.55086      3703037.2    
   1579000   299.8008       0.89364709     0.67963709     1.5732842      188.75215      107.57827      182.2232      -24.596365     -364.19405      31.843151     -293.26629     -82.099764     -229.22893      3700156.8    
   1580000   299.67524      0.89327281     0.67981521     1.573088       188.76333      107.56369      182.10626      381.0748       414.06234      65.465924      271.21491     -28.570907     -102.08103      3697499.9    
   1581000   300.42194      0.89549858     0.67747304     1.5729716      188.70925      107.57609      182.10611      58.46377      -13.883674      0.95790911     114.39443     -117.43527     -85.721492      3696863.8    
   1582000   299.99099      0.89421399     0.68151851     1.5757325      188.746        107.59169      182.16462      241.15055      90.159735     -4.1083445     -122.84626      26.794318     -166.78177      3699308      
   1583000   300.87998      0.89686391     0.67968683     1.5765507      188.71597      107.62572      182.22077      174.86638      165.36051     -182.45948     -22.78461      -79.998812     -190.01973      3701029.7    
   1584000   299.85517      0.89380914     0.6785951      1.5724042      188.73688      107.54105      182.12714      237.02818      81.954657      33.771484      110.33672     -176.22778     -192.77582      3696627.6    
   1585000   300.34444      0.89526757     0.6791031      1.5743707      188.82879      107.60679      182.12214     -50.568962      76.983825     -186.15265      138.31015     -108.0034      -198.53896      3700587.2    
   1586000   300.59617      0.89601792     0.67829552     1.5743134      188.8186       107.57891      182.00849      86.088706     -96.448802      361.63562     -38.856646     -243.28848     -144.31942      3697120      
   1587000   300.1456       0.89467487     0.67979916     1.574474       188.76089      107.6283       182.0915      -301.89364     -188.13299      104.43933      38.25382      -24.469339     -171.66913      3699373.4    
   1588000   300.66394      0.89621992     0.67979593     1.5760158      188.75638      107.64705      182.12021     -234.55909     -17.895556     -4.4421093     -20.798241      12.875245     -280.71042      3700512.9    
   1589000   300.22043      0.89489791     0.67825524     1.5731532      188.74777      107.60901      182.21358      69.835083      310.18379     -149.82068      2.4383112     -106.54924     -223.94144      3700932.8    
   1590000   299.59037      0.89301984     0.6775174      1.5705372      188.76411      107.59987      182.10894     -237.18881      118.65873      68.812357      9.4034829     -63.013899     -91.957117      3698813.6    
   1591000   299.67926      0.8932848      0.67795771     1.5712425      188.77981      107.59828      182.0962      -197.04299     -150.68219     -109.90866      102.2776      -36.141251     -112.14352      3698807.7    
   1592000   300.009        0.89426768     0.67926191     1.5735296      188.73288      107.5714       182.12574      309.17854      359.3313       246.53937      70.677858      5.8420377     -157.4223       3697564.1    
   1593000   299.77004      0.8935554      0.68027283     1.5738282      188.68977      107.60865      182.11382      110.7403      -207.56622      80.149294      184.21807     -74.866208     -48.608755      3697757.5    
   1594000   300.06873      0.89444573     0.67845439     1.5729001      188.72114      107.64317      182.06752     -89.407036     -29.891707     -65.686143      215.78655     -49.603969     -191.27823      3698618.3    
   1595000   300.61998      0.89608891     0.6780078      1.5740967      188.77439      107.62496      182.13367      280.47159      124.00033     -46.214579      55.296927      15.371779     -128.78617      3700380      
   1596000   300.14422      0.89467074     0.68018342     1.5748542      188.75706      107.61594      182.14142      358.85099     -208.40875      108.38953      0.89100133    -149.28513     -254.74038      3699887.5    
   1597000   299.7878       0.89360832     0.67760176     1.5712101      188.75405      107.59599      182.06117      15.602794     -170.90103     -51.965276     -151.77044      1.8285284     -127.57515      3697512.9    
   1598000   300.20606      0.89485507     0.67759718     1.5724523      188.75893      107.60125      182.03826     -191.88239     -258.73141     -53.533057      104.84156     -99.332104     -184.21129      3697324      
   1599000   299.75961      0.89352431     0.6771929      1.5707172      188.71605      107.60722      182.04543      221.94706     -73.643463      262.84362      23.46229      -166.79946     -234.14644      3696835      
   1600000   299.8567       0.8938137      0.67889415     1.5727078      188.72857      107.59848      182.12061      179.99376      65.641762     -55.704449      72.435339     -103.9684      -54.621452      3698306.3    
   1601000   299.75751      0.89351804     0.67845198     1.57197        188.72912      107.63265      182.06844      310.21201      39.013531      139.49955      192.32639     -53.533579     -86.100062      3698431.8    
   1602000   300.30661      0.89515479     0.67612992     1.5712847      188.75431      107.61548      182.13896      161.59205     -196.53756     -203.29994      60.427731     -58.372264     -135.47392      3699767.8    
   1603000   300.94396      0.89705461     0.67854811     1.5756027      188.78666      107.62147      182.11918     -46.742294     -10.060976     -179.27359      42.454156     -47.508478     -130.02266      3700205.8    
   1604000   299.63234      0.89314495     0.68073393     1.5738789      188.73488      107.60212      182.06561     -69.047096     -44.763856      155.66672      92.214415     -81.519444     -140.21791      3697438      
   1605000   299.94767      0.89408486     0.67821498     1.5722998      188.7289       107.58839      182.07203      73.853269      298.10616      84.360742     -0.9572052     -43.695364     -161.41668      3696979.5    
   1606000   300.09676      0.89452929     0.6771747      1.571704       188.81288      107.57436      182.01098      293.58357      142.82855      125.94003     -76.491882      71.164876     -182.36314      3696902.5    
   1607000   300.15986      0.89471738     0.67748667     1.572204       188.80057      107.59255      182.13481     -107.5051       62.01948       12.91974       132.31806     -98.734623     -250.53753      3699801.6    
   1608000   300.38702      0.89539448     0.67716844     1.5725629      188.71102      107.63463      182.205        594.65069      213.80487     -114.41996      92.020396     -209.49503     -167.36185      3700919.1    
   1609000   300.21127      0.8948706      0.68138018     1.5762508      188.78451      107.59915      182.04522      2.6179633     -99.891204     -2.4645757     -178.42078     -191.57484      56.103893      3697894.1    
   1610000   300.64934      0.89617643     0.67684356     1.57302        188.78007      107.60858      181.98135     -54.965781     -171.37728      37.785499      142.95957     -239.98395     -259.65938      3696833.7    
   1611000   300.65839      0.89620338     0.68057734     1.5767807      188.80749      107.62102      182.1231       133.77035      251.54004     -29.514709     -271.25996     -108.20989     -162.93366      3700678.5    
   1612000   300.2255       0.89491303     0.67827423     1.5731873      188.79045      107.63042      182.10871     -336.8829      -116.48659     -286.62449     -32.818827     -122.17048     -135.93076      3700375.2    
   1613000   299.92118      0.8940059      0.67877191     1.5727778      188.66005      107.59246      182.13741     -146.85525     -125.39411     -106.92144     -202.50617     -76.973219     -118.82667      3697097.9    
   1614000   300.28625      0.8950941      0.67584349     1.5709376      188.701        107.57123      182.00049      146.1009       20.856783     -203.05997     -10.518811     -83.292827     -228.19531      3694391.5    
   1615000   299.72628      0.89342494     0.6774918      1.5709167      188.80177      107.60911      182.06844      57.788471     -133.81308     -36.624316     -59.652365     -13.749752     -141.5873       3699046.7    
   1616000   300.09467      0.89452306     0.6804167      1.5749398      188.8435       107.57687      182.16663     -340.21427      179.0538       43.848757     -95.47527       15.780296     -122.13453      3700750.4    
   1617000   299.54723      0.89289125     0.67835891     1.5712502      188.70438      107.62604      182.14113      33.725926     -76.135791     -177.48418      69.05578      -117.92653     -309.88087      3699196.1    
   1618000   300.66018      0.89620872     0.67843032     1.574639       188.65048      107.61407      182.03701     -124.11866     -183.68931     -78.583443     -57.269203     -125.01017     -181.71848      3695614.7    
   1619000   300.1475       0.89468053     0.68014525     1.5748258      188.67232      107.61991      182.1179      -155.94118     -352.52905     -128.17227      38.063862     -102.00967     -173.23244      3697885.5    
   1620000   300.15277      0.89469623     0.67726111     1.5719573      188.77342      107.57512      182.09071      212.41074      232.59326     -123.68825     -77.022948     -207.267       -243.93328      3697774.9    
   1621000   299.72646      0.89342548     0.67960271     1.5730282      188.80887      107.61341      182.14326      50.828169      134.42476      35.646026     -35.023087      33.612067     -347.35201      3700853.5    
   1622000   300.34938      0.89528228     0.6781057      1.573388       188.7764       107.5888       182.0901       189.58504      74.73171       130.84436     -33.996703     -55.64057      -193.36297      3698291.3    
   1623000   299.89335      0.89392296     0.67941128     1.5733342      188.78193      107.56028      182.05256     -108.22358      300.15758      24.589743      88.68249      -88.782201     -86.357328      3696656.8    
   1624000   299.48903      0.89271775     0.68059089     1.5733086      188.76469      107.60456      182.09656      369.80663      400.34165     -5.9435164     -10.897467      28.552587     -73.753527      3698734.8    
   1625000   300.05187      0.89439548     0.67671281     1.5711083      188.70918      107.59283      182.09101      158.28749      86.229572     -53.781762      93.839697     -163.12497     -55.45428       3697131.1    
   1626000   300.07168      0.89445451     0.67774014     1.5721947      188.70175      107.60507      182.00076      27.87654       58.169934     -169.05034     -100.14375     -137.11056     -132.17343      3695573.7    
   1627000   299.93291      0.89404089     0.67866952     1.5727104      188.68879      107.63942      182.09549      174.69381     -325.13666      84.356898     -62.268087     -107.85642     -179.0556       3698423.4    
   1628000   299.84378      0.89377521     0.67780773     1.5715829      188.73583      107.59258      182.10457      523.36772      398.69523     -141.05127     -45.07639      -36.314762     -249.3165       3697920.1    
   1629000   299.71521      0.89339196     0.67832332     1.5717153      188.68072      107.60204      182.0146      -48.892085     -266.22634      47.234521     -171.41235     -36.664927     -35.831442      3695338.6    
   1630000   300.5438       0.89586182     0.6784806      1.5743424      188.62373      107.62393      182.00796      269.28159      33.088265      278.5681      -51.912198      60.955801     -61.409054      3694839.1    
   1631000   300.79097      0.89659858     0.67873268     1.5753313      188.67082      107.60858      182.07206      6.6317914      4.0276178     -7.1319334     -34.787374     -89.745616     -275.22728      3696535.9    
   1632000   299.31439      0.89219718     0.67795515     1.5701523      188.82953      107.60964      181.9773      -44.306748      29.716466      299.47601      54.136673     -107.9287      -132.33598      3697756.5    
   1633000   300.50484      0.89574568     0.68056884     1.5763145      188.80767      107.67738      182.08999     -179.68713     -201.68369      37.788532      206.74229     -92.346428     -264.86578      3701946.9    
   1634000   300.03253      0.89433782     0.68042712     1.5747649      188.71495      107.64479      182.04174     -200.01135     -290.43032     -161.02195      88.293356      16.412298     -216.16973      3698029.1    
   1635000   299.94842      0.89408711     0.67948126     1.5735684      188.71324      107.57145      182.07304     -141.83         61.19063      -178.32462     -66.620577      17.539235     -112.27661      3696111.4    
   1636000   300.80218      0.896632       0.67900945     1.5756415      188.72337      107.56826      182.05032      284.98728      305.22383      109.30477      85.460562      27.086314     -76.423749      3695738.7    
   1637000   299.88517      0.89389858     0.67835194     1.5722505      188.75402      107.61338      182.01747      40.036137     -102.54953      45.349405     -97.76504      -99.395277     -92.543871      3697222.2    
   1638000   299.9741       0.89416365     0.67958824     1.5737519      188.80391      107.57616      182.13761      99.379374     -107.22927      158.94338      103.61043     -11.904335     -218.50389      3699360.6    
   1639000   299.92948      0.89403066     0.6777248      1.5717555      188.74025      107.6227       182.1339       251.724       -63.542679     -212.51766     -263.11096     -70.377007     -148.22603      3699637.6    
   1640000   299.80716      0.89366604     0.67694191     1.5706079      188.8497       107.58704      182.0315      -144.67327     -81.036115      75.120862     -10.234594      13.650895     -104.40551      3698476.3    
   1641000   300.08275      0.89448753     0.67818044     1.572668       188.77171      107.57641      182.15667     -228.36006     -170.58379      12.451527     -78.527967     -104.69945     -35.387416      3699125.2    
   1642000   300.71579      0.89637447     0.67886881     1.5752433      188.75543      107.58001      182.01679      212.43412      142.59519      30.138153     -53.706032     -66.022362     -17.870276      3696089.6    
   1643000   299.89189      0.89391861     0.67672747     1.5706461      188.75858      107.5997       181.8388       72.659781     -210.50271      404.76875     -147.31482      13.149484     -130.28766      3693212.8    
   1644000   299.66779      0.89325061     0.67883375     1.5720844      188.79814      107.58432      182.01067      9.7210479      285.19452     -87.63789       6.9297461     -176.34049     -128.52204      3696949.9    
   1645000   300.04772      0.89438311     0.67877564     1.5731587      188.70338      107.60301      182.13106      128.51947      162.52232      13.234487     -201.38762     -142.37164     -42.531764      3698180.5    
   1646000   300.04668      0.89438        0.67833665     1.5727166      188.76805      107.5763       182.07724     -242.05266      125.79304      128.56624      116.03457     -45.005398     -209.93203      3697436.7    
   1647000   300.90643      0.89694276     0.677202       1.5741448      188.75173      107.64196      181.96611     -0.90279826    -59.343725      63.558442     -260.51505     -70.878226     -129.30511      3697115.6    
   1648000   300.49087      0.89570403     0.67878528     1.5744893      188.66325      107.6148       182.10694      30.84321      -403.50704     -138.29802      57.138839      4.2914622     -168.19332      3697309.7    
   1649000   299.48382      0.89270224     0.67897896     1.5716812      188.72161      107.61797      182.04169     -101.94514     -113.59456      71.23762       148.46859     -55.74887      -173.10464      3697237      
   1650000   299.68294      0.89329576     0.67922783     1.5725236      188.82068      107.55106      181.98087     -60.263452      209.12664      155.56638      259.05114     -69.287488     -90.080383      3695642.8    
   1651000   300.20355      0.89484761     0.67900274     1.5738503      188.75511      107.56347      182.05312      25.22089       170.76178      11.952394     -84.710716     -110.77172     -341.79135      3696252.8    
   1652000   299.86879      0.89384973     0.67914984     1.5729996      188.75147      107.5661       181.98508     -147.93274     -157.21948     -242.13461      61.674848     -177.34183     -92.0059        3694890.3    
   1653000   300.47023      0.89564253     0.67783804     1.5734806      188.70236      107.57778      182.1077      -85.061272     -155.17822     -84.671715     -192.62365     -12.173243      19.869188      3696819.4    
   1654000   299.68472      0.89330106     0.6785011      1.5718022      188.67105      107.59815      182.04779      76.152913     -172.87015      8.4610367     -295.09745     -125.73775     -135.78648      3695689.6    
   1655000   300.49287      0.89571001     0.67516608     1.5708761      188.68702      107.61338      181.93266      246.48342     -156.90419     -12.322543     -74.354642      36.171007     -123.88499      3694187.9    
   1656000   300.05373      0.89440103     0.67545654     1.5698576      188.69137      107.56314      181.94562     -162.17071      358.23126      170.62189     -24.923141     -203.20178     -77.771077      3692811.6    
   1657000   299.65812      0.89322177     0.67676917     1.5699909      188.7192       107.59235      182.03122     -123.19823      125.90325      105.15147     -63.303481     -83.893532     -206.1782       3696096.8    
   1658000   300.27531      0.8950615      0.68064799     1.5757095      188.73776      107.63832      182.03174      40.115907     -115.84942      94.077807     -203.71349     -22.155466     -90.508585      3698050.4    
   1659000   300.62733      0.89611081     0.67870784     1.5748186      188.76829      107.66047      182.11637      19.842289      26.990821     -61.898442      47.450697      34.314602     -150.62871      3701129.7    
   1660000   299.27622      0.89208342     0.67677604     1.5688595      188.69892      107.64081      182.02488      53.962461      354.73172     -26.897075     -130.37804     -91.422004     -70.897685      3697235.3    
   1661000   300.19002      0.89480726     0.67929798     1.5741052      188.76962      107.61834      181.96591     -468.29719      26.610018     -123.22311     -69.990903     -129.49299     -255.9013       3696650.9    
   1662000   299.58093      0.89299169     0.67868034     1.571672       188.7528       107.63278      181.95671     -22.286879     -73.733295     -140.14956     -98.290196      27.542588     -59.70281       3696630.4    
   1663000   300.39928      0.89543105     0.67646685     1.5718979      188.73146      107.58512      182.03562     -63.327647      142.0976      -44.4829        233.65783     -112.84841     -7.3492433      3696178.2    
   1664000   299.39925      0.89245015     0.67617628     1.5686264      188.60342      107.57354      181.99259      112.34528      89.363695     -115.49336      36.124735     -48.245281     -213.92975      3692399.9    
   1665000   300.33892      0.8952511      0.67781699     1.5730681      188.67271      107.60689      182.05852      173.57849      102.77139     -201.78433      139.27339      132.58634     -157.86132      3696240      
   1666000   300.31014      0.89516531     0.67849895     1.5736643      188.68556      107.60057      181.96942     -44.237528     -64.093895      115.72769      40.088578     -134.91777     -62.39489       3694465.6    
   1667000   299.93853      0.89405762     0.67719243     1.57125        188.76608      107.55168      181.93547     -187.98131      119.26574      32.645319     -23.369845     -89.744413     -187.03872      3693673.5    
   1668000   299.81955      0.89370296     0.67935959     1.5730625      188.77728      107.58732      182.10468      198.33047      48.149427     -17.131186     -63.70134       27.280217     -119.79162      3698553.5    
   1669000   300.31041      0.89516613     0.67547863     1.5706448      188.63812      107.62242      181.94322     -11.640974      217.86377      114.88331      70.669928      110.12823     -139.37263      3693755.2    
   1670000   300.58521      0.89598525     0.67715361     1.5731389      188.70826      107.6371       182.03398      207.25037     -199.92802      50.632236     -2.2451591      57.313317     -75.01997       3697476.1    
   1671000   299.81541      0.89369063     0.67739726     1.5710879      188.73244      107.57898      181.94373     -421.05684      103.09683      70.900887      248.78632      167.46647     -72.287933      3694120.5    
   1672000   299.90769      0.89396571     0.67874161     1.5727073      188.76946      107.59681      181.94436     -219.48407     -95.595188     -26.017052     -52.198351     -50.217791     -71.944626      3695470.4    
   1673000   300.69124      0.8963013      0.67612986     1.5724312      188.69723      107.63045      181.96981      215.62095      68.408371      160.17226      81.795461     -75.947902     -246.91597      3695728      
   1674000   300.17906      0.8947746      0.67907971     1.5738543      188.67024      107.63718      182.14869     -663.69429     -551.87956     -206.83738      104.99756     -175.28279     -106.32415      3699063.1    
   1675000   299.30314      0.89216366     0.67966001     1.5718237      188.74882      107.61807      181.97745      289.49113      15.226478      326.60124      48.686659      38.593203     -10.134883      3696468.5    
   1676000   299.72731      0.89342802     0.67902909     1.5724571      188.75576      107.62489      181.97144     -138.14396      2.7575389     -5.5725493      89.879355     -99.950652     -147.32758      3696716.8    
   1677000   300.53922      0.89584817     0.67678214     1.5726303      188.68554      107.6282       181.97698      14.43873      -269.01759      28.030658     -82.868837      9.5384018     -36.67728       3695567.5    
   1678000   299.21793      0.89190965     0.67819851     1.5701082      188.66868      107.60247      181.94195      87.79164      -26.334314     -27.413163     -66.265637     -81.79126      -217.50987      3693642.7    
   1679000   299.83623      0.89375269     0.67734599     1.5710987      188.68132      107.60379      182.05741      285.2155       43.736993      92.93976      -18.943454     -160.39272     -111.01927      3696279.9    
   1680000   300.49599      0.89571932     0.67845626     1.5741756      188.71771      107.57863      182.02148      115.57961     -148.55684      47.849527      39.79493      -70.239645     -139.36994      3695398.8    
   1681000   300.38814      0.89539783     0.67840154     1.5737994      188.69316      107.61821      181.9456       361.46467      260.45828      90.172452     -55.639331      49.383939     -101.77581      3694736.7    
   1682000   300.27696      0.89506641     0.67694661     1.572013       188.79553      107.61885      182.00761      54.600109     -168.8331      -104.5752       150.27251     -122.05054     -27.642466      3698022.8    
   1683000   299.74778      0.89348904     0.67952212     1.5730112      188.70637      107.60778      182.11414      40.150236      124.33238     -70.657066     -18.32528      -144.91107     -272.53555      3698059.5    
   1684000   299.83466      0.89374803     0.67683818     1.5705862      188.70136      107.6647       181.94889      27.657685     -145.78497     -135.46652     -242.1615      -14.545673     -163.93005      3696560.3    
   1685000   300.00949      0.89426914     0.67817308     1.5724422      188.72123      107.6253       181.9383       66.99321      -19.505951     -102.23716     -113.23264      52.23128       68.061607      3695381.2    
   1686000   299.75408      0.89350783     0.67750021     1.571008       188.81759      107.6176       181.90973      108.53323     -280.4242       152.04635      7.5751235      42.062953     -80.767792      3696423.1    
   1687000   300.46195      0.89561785     0.67725929     1.5728771      188.69094      107.59067      181.94424     -51.540743      66.959171      5.7700809      34.364134     -172.5539       11.87457       3693720.3    
   1688000   299.66314      0.89323676     0.67765916     1.5708959      188.72551      107.58449      182.01457     -143.45053      329.70665     -58.844083      156.80255      1.023157      -188.24264      3695612.6    
   1689000   300.10494      0.89455368     0.67800543     1.5725591      188.69482      107.59929      181.89795     -47.724258      257.25173      239.74049     -21.398531     -59.438871     -116.62117      3693152.1    
   1690000   299.93626      0.89405087     0.67824107     1.5722919      188.65119      107.59645      182.01012      94.983259      177.36182     -108.68799      266.88673      51.711005     -84.85447       3694477.3    
   1691000   299.7306       0.89343782     0.67526052     1.5686983      188.77065      107.56516      182.0217      -276.96859      175.86287     -74.919404      73.320418     -77.300233     -284.53353      3695977.1    
   1692000   299.76826      0.8935501      0.67687396     1.5704241      188.74423      107.60628      181.95245     -66.108593     -116.87926      174.80579     -76.066286      95.630245     -23.218536      3695465.9    
   1693000   300.21566      0.89488371     0.67603225     1.570916       188.75891      107.64098      181.90582      101.44091     -152.45156      133.2438       46.346789      35.857945     -21.690347      3695997.8    
   1694000   299.91199      0.89397853     0.67685864     1.5708372      188.74465      107.56123      182.0216       78.326955     -95.687729     -119.10263      70.702898      102.75665     -85.911864      3695330.9    
   1695000   299.54522      0.89288526     0.67845628     1.5713415      188.68354      107.58114      181.97866     -255.55601      32.710149     -70.631098      124.33136     -115.16232     -215.27699      3693946.6    
   1696000   300.27186      0.89505121     0.67836149     1.5734127      188.72252      107.63612      181.95953      147.37306     -97.85566      -230.46502      367.60371     -22.329701     -17.820959      3696209.2    
   1697000   300.08909      0.89450642     0.67763482     1.5721412      188.7643       107.63737      181.9285      -365.20034      83.45863       72.588043      66.391629     -42.090976     -103.81581      3696440.2    
   1698000   300.3262       0.89521321     0.67754516     1.5727584      188.66433      107.65788      181.99464      79.213104      171.76021     -95.839022     -142.94833     -72.353776     -60.504172      3696529.7    
   1699000   300.27185      0.8950512      0.67792758     1.5729788      188.74062      107.6593       181.91984      245.67412     -85.918173      175.03368     -174.1738      -60.72334      -92.095667      3696553.5    
   1700000   300.32489      0.89520931     0.67798586     1.5731952      188.733        107.6657       181.91363      104.01586     -33.324734     -35.032283      19.620637     -144.05979     -156.72753      3696498      
   1701000   299.35028      0.89230418     0.67767841     1.5699826      188.6311       107.64157      182.04828      204.36437      66.197277     -28.757857     -11.908664     -12.955625     -236.91809      3696408.2    
   1702000   299.98312      0.89419053     0.67877577     1.5729663      188.67171      107.67292      181.9503      -209.899        118.72212      54.310934     -163.97219     -149.63117     -203.55029      3696290      
   1703000   300.28951      0.89510383     0.67688295     1.5719868      188.64738      107.54981      181.997        14.226033      169.32969     -122.17015      224.00548     -154.42089     -110.98971      3692535.1    
   1704000   299.9734       0.89416157     0.67593805     1.5700996      188.67268      107.60548      181.9896       257.0104       136.36278     -84.826686      32.897621     -123.41559     -94.88803       3694791.7    
   1705000   300.56544      0.89592631     0.67826277     1.5741891      188.67811      107.61831      181.96032      41.366337      74.592405      45.048463      41.367342      117.1624      -87.656748      3694744.3    
   1706000   300.1361       0.89464653     0.67863916     1.5732857      188.79218      107.58491      181.9029      -50.10879      -191.44684      164.69362     -58.210359     -37.103435     -136.65478      3694664.2    
   1707000   299.81567      0.89369142     0.67986852     1.5735599      188.73397      107.59424      181.95192      125.75944      107.66515      62.944396     -12.53077      -34.29988      -168.90509      3694840.8    
   1708000   299.50543      0.89276665     0.67891476     1.5716814      188.7116       107.61164      182.03026      159.97481     -18.702047     -78.886091      150.71066      70.359994     -176.39446      3696591.4    
   1709000   300.78256      0.89657352     0.6783164      1.5748899      188.77748      107.57757      182.12456     -218.1218       25.24259      -50.435839      80.095041     -133.79125     -54.543188      3698626      
   1710000   300.33419      0.895237       0.67823197     1.573469       188.67059      107.61858      181.94875     -151.36295     -330.67791      81.063851     -133.68759      34.782319     -34.755486      3694371.2    
   1711000   299.73744      0.89345821     0.6757726      1.5692308      188.64743      107.64419      182.0071       230.30741      182.04381     -118.6161      -207.03619     -122.02324      20.997424      3695981.9    
   1712000   299.57379      0.8929704      0.67529206     1.5682625      188.61275      107.6579       182.04847     -42.59076      -437.87597      44.1831        112.00118      49.684343     -30.784769      3696612.8    
   1713000   299.96267      0.89412958     0.67868545     1.572815       188.67569      107.63034      181.94356      147.29678     -269.39134      34.229217      304.69531     -69.79142      -84.1957        3694769.3    
   1714000   300.33885      0.89525092     0.67646719     1.5717181      188.63063      107.61848      181.86        -19.484295     -62.634684     -28.816655      55.555265     -108.36747     -28.425626      3691783.7    
   1715000   299.50676      0.89277059     0.67897446     1.5717451      188.7161       107.62649      181.96575      303.41854     -155.37785      107.22903      200.92005      67.893281     -113.10736      3695879.4    
   1716000   299.65359      0.89320827     0.67979348     1.5730017      188.6679       107.66911      181.95108     -120.64299      11.340008      113.87267     -242.56276     -20.424169      21.966058      3696100.7    
   1717000   299.59606      0.8930368      0.67875809     1.5717949      188.63209      107.64893      181.86095      50.655266      49.716702     -24.799599     -72.871186      22.124593     -44.752748      3692876.4    
   1718000   300.14279      0.89466649     0.67909904     1.5737655      188.70098      107.64061      181.98242      6.2667748     -8.0499589     -213.09955     -74.817529     -2.2616234     -31.392685      3696406.5    
   1719000   299.33598      0.89226154     0.67771298     1.5699745      188.65108      107.61529      181.96333     -62.117413     -53.889916     -78.03462      -51.835425      7.354998      -57.639931      3694172.4    
   1720000   299.63235      0.89314496     0.67686314     1.5700081      188.67902      107.65124      181.85313     -266.8052       104.97726      3.9197424      84.747467     -5.1179619     -95.955068      3693715.5    
   1721000   300.28078      0.89507781     0.67891827     1.5739961      188.65889      107.6348       181.9762       321.66188     -375.83421     -118.81406      34.374659     -115.82066     -155.19443      3695256.4    
   1722000   300.42433      0.8955057      0.6748815      1.5703872      188.65194      107.64367      181.96913     -228.99785     -247.6136       27.414046     -255.39018      3.5444368      7.2418095      3695281.4    
   1723000   299.91425      0.89398525     0.67760566     1.5715909      188.62195      107.62192      181.93743     -192.97965      22.837846     -62.693976     -38.404314      34.726068     -27.247919      3693303.9    
   1724000   299.68351      0.89329745     0.67565712     1.5689546      188.70126      107.64307      181.93072      355.47081      148.35855      227.71284     -88.332755      76.985638     -103.19513      3695446.3    
   1725000   300.86319      0.89681385     0.67847745     1.5752913      188.67659      107.688        181.9248       234.41797     -75.463557      247.69113     -40.800901      4.0852789     -103.05529      3696385.1    
   1726000   300.1505       0.89468946     0.67667905     1.5713685      188.6979       107.63463      182.0059      -292.0344       11.265092      110.07998      22.666918      104.36602     -187.93501      3696617.9    
   1727000   299.80154      0.89364928     0.67641841     1.5700677      188.63713      107.63594      181.98019     -41.914176     -57.580625     -103.66136      316.87321     -10.986115      102.98616      3694950.3    
   1728000   301.01044      0.89725278     0.67819363     1.5754464      188.76861      107.62491      182.11283     -74.518511      198.79274     -204.38831     -124.75916      58.79138       11.747953      3699841.6    
   1729000   299.73987      0.89346547     0.67634887     1.5698143      188.73992      107.61117      182.05828      120.62823      336.66569     -184.97448     -235.55211      11.473466     -178.3826       3697698.9    
   1730000   300.00105      0.89424398     0.67814012     1.5723841      188.70262      107.62175      181.95502      9.1615563      194.96079      37.325107     -166.12156     -101.75132      91.186836      3695234.6    
   1731000   300.56924      0.89593764     0.6774522      1.5733898      188.70812      107.62735      181.8221       177.20566     -18.281319      62.843138     -23.11532      -137.32681      7.5481746      3692834.7    
   1732000   300.06344      0.89442996     0.67533019     1.5697602      188.67408      107.60646      181.8989      -189.80679     -111.15479      141.3362      -90.506008     -16.163835      69.749151      3693011.8    
   1733000   300.46055      0.89561366     0.67563502     1.5712487      188.70212      107.6143       181.90557      339.27249      107.22245      195.85501     -31.53992       72.255347      32.536042      3693964.9    
   1734000   299.81171      0.89367959     0.67671041     1.57039        188.55112      107.66191      181.95731      91.107216      34.479366     -30.304374      206.79311      107.63687      54.393748      3693692.3    
   1735000   300.17533      0.89476348     0.6766547      1.5714182      188.61005      107.6129       181.87095      78.222261      263.85567      183.5949       38.583395     -55.505976     -193.81195      3691412      
   1736000   299.8732       0.89386289     0.67701998     1.5708829      188.66965      107.61633      182.02119     -272.85558      45.447324      56.575452      57.96886       35.591452      24.604633      3695746.3    
   1737000   299.77306      0.89356441     0.67859923     1.5721636      188.64379      107.58514      181.99652     -44.460263     -286.53025     -150.26738      189.05089     -93.533083     -110.01424      3693668.5    
   1738000   300.12559      0.89461523     0.67768185     1.5722971      188.71288      107.59118      181.89978      266.80333      101.81242      92.532747     -90.833417     -72.784858     -138.35135      3693264      
   1739000   300.00949      0.89426915     0.67850202     1.5727712      188.7414       107.63192      181.9893      -81.368387     -67.749787      92.376562      14.91407       68.768305     -126.55419      3697039.7    
   1740000   300.21746      0.89488907     0.6786918      1.5735809      188.66908      107.61451      182.01852      115.75013      81.991545      87.677352     -62.75125       21.775739     -53.969784      3695618.7    
   1741000   299.54502      0.89288466     0.6746646      1.5675493      188.71424      107.64915      181.87301     -81.245583      72.862164     -28.451709     -49.195694      62.166801     -98.30211       3694736.9    
   1742000   299.87388      0.89386492     0.67644733     1.5703122      188.63153      107.63665      181.95503     -40.66084      -49.120635     -25.173995     -110.58611     -13.137066     -38.594509      3694354.3    
   1743000   299.73717      0.8934574      0.67876964     1.572227       188.60917      107.6425       181.86298     -85.025627      24.792012     -127.89437     -1.1801719     -39.778556     -66.977495      3692248.3    
   1744000   300.66549      0.89622455     0.67756202     1.5737866      188.72539      107.65973      182.03437      2.1181772      145.12082     -51.382244     -246.40571     -32.431021     -164.71768      3698597      
   1745000   300.07833      0.89447434     0.67694511     1.5714195      188.64236      107.61876      181.96942      94.378786     -307.58064     -154.36935      80.574481     -2.9797239     -89.243598      3694244.5    
   1746000   300.1372       0.89464982     0.67678391     1.5714337      188.64103      107.64432      181.98648     -320.92198      15.381796     -227.68738      70.490941      34.511674      92.98099       3695442.2    
   1747000   300.28845      0.89510067     0.67573212     1.5708328      188.78052      107.62089      181.92132     -288.45688     -53.487119      156.24777      61.916864      2.1462951     -131.78708      3696046.1    
   1748000   300.08214      0.89448571     0.67855525     1.573041       188.8105       107.65772      181.95694      70.947601      544.74543      74.438369      15.662198     -17.13935      -8.5994745      3698622      
   1749000   299.89827      0.89393762     0.67780111     1.5717387      188.68238      107.60046      181.97023      216.77108      186.25748      2.5042779      85.156276      5.9918325      58.478176      3694416.5    
   1750000   299.73115      0.89343946     0.67568056     1.56912        188.76402      107.63103      181.97483     -329.62121     -233.87127     -24.07316      -76.391959     -24.968986      32.287544      3697158.3    
   1751000   299.93332      0.8940421      0.67550204     1.5695441      188.6192       107.62288      181.90961      397.73927     -162.63885      32.417328      217.50687     -19.736561     -12.171111      3692718.1    
   1752000   299.79855      0.89364038     0.67609494     1.5697353      188.61133      107.67663      181.95006      324.71156      229.0807       256.37368      21.010538      7.9927395     -66.625944      3695229.6    
   1753000   299.87691      0.89387396     0.67869079     1.5725648      188.72916      107.62873      182.01287     -3.4848598     -35.542696      103.97274      49.994654     -70.520418     -115.20462      3697169.1    
   1754000   300.01975      0.89429972     0.67763196     1.5719317      188.71063      107.60377      182.01108      136.67198      276.66884     -81.478223     -13.472407     -101.42402     -37.577548      3695912.3    
   1755000   300.11449      0.89458213     0.67702561     1.5716077      188.60106      107.6652       181.95161      245.71226     -202.61925     -200.25697     -57.119241     -124.97103      2.9352554      3694667.9    
   1756000   299.86537      0.89383956     0.67707128     1.5709108      188.66411      107.60787      181.86299      232.19946      209.706        63.331056     -20.597243     -42.850989     -110.64929      3692135.8    
   1757000   300.29897      0.89513204     0.67748274     1.5726148      188.71804      107.61194      181.95089     -5.3092113      258.21764     -38.853575     -186.37834      88.310046      7.3907978      3695115.8    
   1758000   299.8587       0.89381966     0.67767539     1.571495       188.76072      107.58428      181.93305      24.615932      355.28185      56.57926      -52.473761      51.620453     -12.361382      3694639.3    
   1759000   300.19138      0.89481131     0.67791642     1.5727277      188.6633       107.63035      181.85855      184.58309     -50.230137      37.511254      6.6808008     -14.565889     -152.77536      3692800.9    
   1760000   300.54793      0.89587413     0.67928341     1.5751575      188.61044      107.67195      181.97347      49.044256     -137.0273       54.020801     -99.718821     -89.444152     -166.21101      3695527      
   1761000   299.64509      0.89318295     0.67834598     1.5715289      188.57146      107.69683      181.86064      96.417568     -150.48408      37.26982       66.967851      1.3157038      7.8615474      3693325.6    
   1762000   300.15292      0.89469669     0.67959745     1.5742941      188.74875      107.66094      182.01623      86.385335     -13.360469     -24.767648      152.17345     -138.55876      66.535547      3698727.8    
   1763000   299.97593      0.8941691      0.67742045     1.5715896      188.66224      107.61283      181.88576     -162.42752      33.00961       6.5623607     -47.123211     -44.321581     -55.224645      3692731.7    
   1764000   299.73835      0.89346094     0.67731025     1.5707712      188.67749      107.62726      181.9631       29.214021      22.099852     -22.108659     -160.34145     -160.09775     -16.64952       3695095.8    
   1765000   299.88024      0.89388389     0.67886846     1.5727523      188.68693      107.59882      181.92011      45.709358      239.10344     -127.3618      -356.07973     -137.36366      11.933291      3693431.3    
   1766000   299.88901      0.89391001     0.67463989     1.5685499      188.74306      107.63096      181.90242     -69.738673      35.039905     -46.909719      47.395418     -104.46112      37.051796      3695274      
   1767000   299.70148      0.89335103     0.67881169     1.5721627      188.68727      107.65377      181.95463      78.27659      -27.429233      212.94403      109.32259      86.400082      9.7259339      3696025.6    
   1768000   300.42406      0.8955049      0.6781522      1.5736571      188.6614       107.61148      182.00468     -104.16717     -46.256605      107.40428     -39.936859     -60.72699      -140.23656      3695083      
   1769000   299.83212      0.89374044     0.67734708     1.5710875      188.72759      107.6396       181.9482       38.331169      141.97362      159.29488      181.51387     -59.977373     -61.974188      3696197.9    
   1770000   299.76171      0.89353056     0.67649617     1.5700267      188.65802      107.65505      181.89979     -63.004636     -259.66529      33.52888      -1.9200496     -0.22987483    -105.94596      3694382.6    
   1771000   300.12622      0.89461711     0.67721428     1.5718314      188.72629      107.57272      181.91161     -7.6360415      54.019824     -3.008875       111.51394      24.546499      60.435638      3693133.2    
   1772000   299.99773      0.89423411     0.67617199     1.5704061      188.73627      107.6029       181.96458     -141.33424      67.112576      25.376959      3.1052003      1.6148732      119.65618      3695440.4    
   1773000   299.51541      0.89279638     0.6811825      1.5739789      188.67777      107.61137      181.93576      79.067908      331.61954      22.245042      123.79269     -97.242147      139.73916      3694000.5    
   1774000   299.97973      0.89418043     0.67600674     1.5701872      188.68371      107.61126      181.8216      -40.767331      351.64737     -9.9352015      99.747494      25.662699     -91.500961      3691795.1    
   1775000   299.85616      0.8938121      0.67632258     1.5701347      188.7375       107.62305      181.92382     -324.04794     -208.30732     -10.201449      42.235017      8.4255708     -91.692002      3695328.6    
   1776000   300.04656      0.89437963     0.67826184     1.5726415      188.7026       107.6316       181.87363      54.233834     -28.281288      9.8114955      22.162124      39.205899     -93.015723      3693919.5    
   1777000   300.06014      0.89442011     0.67828147     1.5727016      188.67966      107.63619      182.03358      297.1578       36.101166     -126.28746      130.94052      116.49273      62.678865      3696876.3    
   1778000   300.01912      0.89429786     0.67706122     1.5713591      188.65304      107.63109      181.92484     -117.54253      292.98286      367.92904      67.154429      61.037989      8.3717917      3693971.6    
   1779000   299.43331      0.89255166     0.67579614     1.5683478      188.64647      107.62662      181.90417     -73.726187     -145.65244     -243.24688      159.74574     -138.26328      42.229984      3693269.6    
   1780000   299.63558      0.8931546      0.67812461     1.5712792      188.72565      107.58845      181.91505     -80.933365     -115.19413     -320.19017      127.41791     -122.94332     -135.72335      3693730.8    
   1781000   300.53518      0.89583613     0.67825919     1.5740953      188.71533      107.66827      181.92009     -65.928017     -53.802861     -15.281379     -17.564987      60.851709      24.539999      3696371.2    
   1782000   299.82023      0.89370499     0.67560332     1.5693083      188.63233      107.65161      181.93479      234.24155     -6.6722161      1.6242442     -54.642756      39.740967     -60.663706      3694472.3    
   1783000   299.99835      0.89423593     0.67841523     1.5726512      188.65506      107.63393      181.97934     -216.13055     -246.08697     -192.70972      188.29635     -64.44943      -39.183395      3695215.2    
   1784000   299.738        0.8934599      0.67658926     1.5700492      188.6348       107.57899      181.9376       76.194352     -81.162755     -23.26225       96.071136      43.74848       45.757668      3692085.5    
   1785000   300.32025      0.89519546     0.67801044     1.5732059      188.59432      107.66001      181.89912      221.09548      32.97655       170.16399      109.46496     -114.49281     -38.955511      3693292      
   1786000   300.18149      0.89478184     0.67665303     1.5714349      188.68506      107.63172      181.90242     -31.724882      81.791774      209.9464       242.18683     -305.68992      71.73333       3694164.8    
   1787000   300.39853      0.89542881     0.67505429     1.5704831      188.63073      107.60219      181.92944      38.249196     -236.96088     -91.821453      45.647404      127.78567      2.836804       3692636.3    
   1788000   299.24552      0.89199191     0.67654816     1.5685401      188.68843      107.6255       181.9662       93.00212       189.50197     -80.818813      33.009947      46.210901     -73.148661      3695312.6    
   1789000   300.36045      0.89531528     0.67766963     1.5729849      188.71229      107.60484      181.98755     -323.91026      93.662629     -59.938024     -106.69202      2.7605615      57.91062       3695504      
   1790000   300.54297      0.89585934     0.67855264     1.574412       188.58493      107.63067      182.01261      180.97134     -80.214476      71.586521      130.62414     -38.97495       92.131021      3694405.1    
   1791000   299.74491      0.8934805      0.67776696     1.5712475      188.68419      107.63171      181.95603     -344.72268      62.900941     -96.393033     -140.22085     -119.61453     -90.316688      3695236.4    
   1792000   299.68302      0.89329601     0.6778486      1.5711446      188.68784      107.67007      182.02342     -220.61979     -69.330959     -192.13087     -52.740014      60.329387     -27.565622      3697993.7    
   1793000   300.0235       0.89431091     0.67802375     1.5723347      188.68931      107.64147      181.99121     -48.560678      62.693216     -122.70029     -46.701367      4.365744      -12.215741      3696386.2    
   1794000   300.51378      0.89577234     0.67731936     1.5730917      188.66081      107.61512      181.85577     -2.1098732      259.84891     -38.098317     -19.305442      31.317459      155.52677      3692173.4    
   1795000   300.45264      0.8955901      0.6774645      1.5730546      188.62546      107.64752      181.92257     -112.1192      -130.49085     -61.197837      31.763306     -11.878506     -24.893721      3693949.2    
   1796000   300.17511      0.89476282     0.6784943      1.5732571      188.75978      107.62792      181.96322      201.25341      577.0599       170.4471       100.32827      8.6267678     -77.476364      3696732.3    
   1797000   300.10768      0.89456182     0.67667855     1.5712404      188.70887      107.64281      181.92895     -158.30982     -187.70193     -112.99439      20.46692       66.96616      -120.35796      3695550.7    
   1798000   299.64917      0.89319509     0.67963546     1.5728306      188.69636      107.6604       181.92148      81.62236       162.28786      113.06751      249.26558     -92.768776     -50.5987        3695757.9    
   1799000   300.02757      0.89432305     0.67662032     1.5709434      188.67591      107.66482      181.94318      64.947021     -288.32791      5.0441516     -122.61403     -50.432054     -101.9594       3695949.5    
   1800000   300.04446      0.89437339     0.67672117     1.5710946      188.66041      107.67019      181.86338      259.03985     -134.46637     -119.62285      112.93589      29.156744      39.618922      3694209.4    
   1801000   299.73515      0.89345138     0.67530719     1.5687586      188.72633      107.59912      181.82499      285.24415     -80.560411      138.42804     -43.21041      -60.117377      29.39911       3692281.3    
   1802000   299.82139      0.89370845     0.67745058     1.571159       188.72867      107.66785      181.93751      100.80112     -243.86692     -88.043585      228.18395      68.158401     -106.22508      3696972.1    
   1803000   300.45772      0.89560524     0.67943026     1.5750355      188.5962       107.67534      182.10231      330.06331      519.88122      137.12058     -131.43834      39.29842       4.7876889      3697980.8    
   1804000   300.21111      0.89487014     0.67688258     1.5717527      188.67677      107.67263      181.88769      170.47941      68.127335     -1.3623057     -142.35879     -48.471562     -18.178441      3695107.4    
   1805000   300.42526      0.89550847     0.67702294     1.5725314      188.71762      107.62066      181.98906     -296.0321       254.14898     -90.809189      154.42812      20.772082      140.94772      3696182.2    
   1806000   300.34474      0.89526847     0.67682619     1.5720947      188.78524      107.62574      181.9478       11.096435      178.87954     -76.146049     -159.85347      50.050678      51.73992       3696842.9    
   1807000   300.38049      0.89537502     0.68015452     1.5755295      188.72919      107.61133      181.8235       78.445064     -14.330537      150.86557      37.058801      86.346441     -159.4324       3692726      
   1808000   299.79295      0.89362367     0.68063703     1.5742607      188.68494      107.60789      181.98071     -67.417517      190.28551     -75.417744      30.258197     -81.304638     -35.041192      3694933.9    
   1809000   299.53508      0.89285503     0.67772005     1.5705751      188.65465      107.64319      181.91665     -100.82639      141.69311     -49.927545      181.93387      48.429334      43.460762      3694251.9    
   1810000   300.43508      0.89553773     0.67776458     1.5733023      188.6307       107.65173      181.87671      92.635941     -25.459571      259.60332      243.7363      -1.9531225     -64.931635      3693265.1    
   1811000   299.68197      0.89329288     0.67643123     1.5697241      188.62035      107.65358      181.87285      68.333355      72.929436      55.274721     -58.139658     -22.560028     -3.4715886      3693047.7    
   1812000   299.60402      0.89306053     0.67870198     1.5717625      188.69567      107.68232      181.96911     -265.87462     -226.18681     -28.846882      88.249841      109.55737      86.224334      3697464.6    
   1813000   299.85316      0.89380316     0.67697516     1.5707783      188.61316      107.6879       181.85276      221.60456     -100.943        159.02644      162.74002     -60.058098     -90.674599      3693676      
   1814000   299.8594       0.89382176     0.67507643     1.5688982      188.61698      107.64486      181.7955       487.16642     -89.967458      58.98106      -1.325605       8.8226778      134.77396      3691111.9    
   1815000   299.72449      0.89341962     0.67588333     1.5693029      188.69089      107.62199      181.92742      189.03792     -110.63973     -313.02508      89.746577     -25.458629      56.261913      3694452.7    
   1816000   300.41388      0.89547456     0.67569018     1.5711647      188.59307      107.61201      181.91638      437.71832      155.64608      20.430793      224.44742     -12.377137      25.286349      3691970.9    
   1817000   299.8431       0.89377318     0.67727813     1.5710513      188.73985      107.63614      181.91556     -77.841726     -470.14223      115.41898      8.1162913     -8.6368443     -46.687412      3695656.1    
   1818000   299.9053       0.89395858     0.67699194     1.5709505      188.66849      107.63286      181.88806     -6.9882896      128.45204     -69.436128     -77.439822     -75.608602      172.44348      3693587.8    
   1819000   299.72744      0.89342842     0.67793643     1.5713649      188.68776      107.65962      181.97456      31.315748      64.678099     -66.362736     -17.647982      92.240612      2.4347843      3696640.8    
   1820000   300.46642      0.89563117     0.67927042     1.5749016      188.65319      107.6937       181.97842     -304.06556     -143.4992       141.70541      199.78065     -50.481562     -48.891731      3697211.7    
   1821000   299.81946      0.89370272     0.6755091      1.5692118      188.65164      107.65357      181.91915      17.844974      100.87095     -105.46245     -39.654513     -113.442       -5.3666821      3694600.1    
   1822000   299.81942      0.89370259     0.67792924     1.5716318      188.6631       107.64725      181.90381      186.20561      58.469965     -86.987233      358.54921      27.797292      69.708335      3694296.1    
   1823000   300.88661      0.89688368     0.67837373     1.5752574      188.61844      107.65019      181.95352     -105.09467     -241.55668      5.1241175     -91.649692      48.764527      164.9131       3694532      
   1824000   300.23466      0.89494033     0.67717569     1.572116       188.71204      107.66968      181.81933      82.05218      -352.43888      47.488161     -8.5293577     -112.68066      35.305262      3694307.7    
   1825000   299.84044      0.89376526     0.67713376     1.570899       188.58309      107.60514      181.94076      4.0935158      173.21619      8.842568      -71.713155     -40.922297     -33.537958      3692034.9    
   1826000   299.70218      0.89335313     0.67619245     1.5695456      188.65275      107.65035      181.94262     -94.557977      45.351514     -152.55307     -100.0769       24.467417      55.729231      3694987.8    
   1827000   299.67299      0.89326611     0.67751382     1.5707799      188.61066      107.70184      181.88368     -131.0263      -34.374732     -68.532273     -142.5429      -33.583426      39.040037      3694733.2    
   1828000   299.80104      0.89364781     0.67871777     1.5723656      188.58828      107.6744       181.95544      74.898532     -40.172129     -192.58268     -44.021777      102.73672      52.806648      3694810.8    
   1829000   300.76992      0.89653585     0.67799173     1.5745276      188.7001       107.72015      181.91937      138.35449     -156.38037     -56.231367     -0.31270323     38.210237      109.06397      3697839.3    
   1830000   299.52761      0.89283274     0.67815291     1.5709857      188.72526      107.70149      181.91982      141.63954     -190.52602      83.297493     -106.55371     -3.7001298     -0.22929012     3697700.7    
   1831000   299.94787      0.89408548     0.67751678     1.5716023      188.56053      107.6776       181.87388     -122.7741      -5.1720363      205.42867      23.472742      159.29589      46.497889      3692720.8    
   1832000   300.04598      0.89437792     0.67688416     1.5712621      188.63397      107.67095      181.9026       76.057125     -8.1127219     -288.11443      0.57126207    -137.69521      135.27206      3694514.2    
   1833000   299.90784      0.89396614     0.67865988     1.572626       188.70562      107.64815      181.90808      302.532        141.56572      95.571491      124.15154     -65.117219      12.491528      3695246.4    
   1834000   300.00218      0.89424736     0.67630193     1.5705493      188.65386      107.66017      181.88895      25.710564      293.06331      82.174059     -106.54331     -82.654826     -25.108266      3694256.4    
   1835000   300.19206      0.89481334     0.67684611     1.5716595      188.65331      107.67605      181.88393     -20.876578     -48.934788     -247.63411      1.0854133      62.083891      138.64256      3694689      
   1836000   300.30584      0.8951525      0.67758087     1.5727334      188.57268      107.67107      181.95212      184.2018      -289.93628      114.4688      -141.46222     -50.104241      202.36154      3694323.5    
   1837000   300.10723      0.8945605      0.67698549     1.571546       188.64541      107.64587      182.01863     -259.53678      64.818953     -33.790583     -19.973633     -84.644587      96.528244      3696233.8    
   1838000   299.48878      0.89271702     0.67507432     1.5677913      188.64669      107.61841      181.90739     -115.21828     -117.17348     -85.116718      115.21981     -36.482855      166.54555      3693057.7    
   1839000   300.26946      0.89504406     0.67896908     1.5740131      188.7395       107.63854      181.91698     -225.09595      78.421436      84.708333      66.248754     -67.944898      148.2633       3695760.5    
   1840000   299.55846      0.89292471     0.67827894     1.5712036      188.64169      107.68425      181.88437      56.736115     -68.022598      74.322255     -49.603039      28.251363      101.43444      3694751.7    
   1841000   299.30668      0.8921742      0.67680416     1.5689784      188.72612      107.63841      181.93803      29.019941     -180.96656     -154.58597     -194.11998      25.738585     -0.30633175     3695921.9    
   1842000   299.40373      0.89246349     0.67580678     1.5682703      188.65078      107.57859      181.90585     -166.57397      36.409826      49.164915      24.878276      55.57578       88.180781      3691740.1    
   1843000   299.51459      0.89279395     0.67840295     1.5711969      188.62903      107.64879      181.84552      109.00193      403.71502      77.53344      -13.300394      38.733774     -37.139276      3692498      
   1844000   300.45457      0.89559583     0.67795194     1.5735478      188.64755      107.71058      181.85209     -52.486732     -134.69452     -76.589473      147.17462     -38.445299     -97.62503       3695114      
   1845000   300.66314      0.89621756     0.67722628     1.5734438      188.66497      107.64571      181.85594     -15.651435     -29.263392      376.63768     -93.109494      39.052888     -8.153155       3693307.6    
   1846000   299.86565      0.8938404      0.67715293     1.5709933      188.72454      107.57041      181.84756      14.096544      49.940481      52.912783     -39.951416      46.370367     -30.841213      3691719.2    
   1847000   299.2437       0.89198647     0.67639603     1.5683825      188.69175      107.67133      181.84468      235.08698      24.957535      96.001148     -53.668672     -64.313734     -22.269723      3694482.6    
   1848000   299.85387      0.89380526     0.67647165     1.5702769      188.62245      107.6536       181.957       -80.33276      -75.996711     -73.166933      90.41641      -3.3254605     -41.007516      3694797.9    
   1849000   300.13126      0.89463212     0.67742119     1.5720533      188.63064      107.64264      181.90792     -265.71737      210.45203     -4.8139825      83.915766      59.291888      28.078153      3693585.8    
   1850000   299.82487      0.89371882     0.67854038     1.5722592      188.71536      107.63073      181.98107      68.151696      81.855171     -32.065513     -0.76148232     29.939591      74.18858       3696321.7    
   1851000   300.52641      0.89580997     0.67739698     1.573207       188.69507      107.64843      181.933        132.12033      54.028115     -50.515936      8.1516888     -127.13324      70.313986      3695555.5    
   1852000   299.71466      0.89339032     0.67637548     1.5697658      188.67036      107.60378      181.90695     -375.51655      472.79064     -16.126731      60.232676      23.713382      141.02347      3693010      
   1853000   299.46103      0.89263429     0.67924773     1.571882       188.64523      107.69762      181.85999      259.48171     -124.81954      91.707158     -60.452148      138.20428      210.40042      3694784.2    
   1854000   299.45488      0.89261596     0.6789583      1.5715743      188.69733      107.70931      181.95141      27.734897     -141.72174     -244.96616     -84.332531     -59.068303      53.541659      3698064      
   1855000   300.21944      0.89489498     0.6782154      1.5731104      188.69589      107.6491       181.88359     -92.941869      393.64872      180.4943       16.536322      54.131065      12.392291      3694590.9    
   1856000   299.38708      0.89241385     0.67965109     1.5720649      188.68661      107.61046      182.04033     -118.34498      106.67836      2.0228974      210.13674      69.946902      72.003418      3696265.7    
   1857000   300.16739      0.89473982     0.67732893     1.5720687      188.68625      107.65667      182.00561     -1.3543158      187.68632      111.63325     -117.49062      50.169031      2.2720049      3697140.7    
   1858000   299.56158      0.89293401     0.67991825     1.5728523      188.59172      107.65789      181.98104      89.278906     -81.396754     -115.99575      16.023923     -171.03249     -51.384581      3694831.4    
   1859000   300.36757      0.89533651     0.67637083     1.5717073      188.62134      107.64135      181.86316      153.43898      117.65338     -2.7340447      81.802207      129.14882      143.86094      3692450.7    
   1860000   299.67514      0.89327251     0.67675079     1.5700233      188.67935      107.65025      181.88569     -95.908742     -277.76374     -29.187812      206.19339      33.676506     -5.4895012      3694349.2    
   1861000   299.56705      0.89295033     0.67741425     1.5703646      188.71145      107.64125      181.96599     -6.2639256      296.94738      30.993336     -98.34843      -32.580149      189.23683      3696300.1    
   1862000   300.19407      0.89481936     0.67547115     1.5702905      188.70797      107.6429       181.82006      213.1178       33.885244      38.060115     -130.79652      70.931352      37.902663      3693324      
   1863000   299.96856      0.89414715     0.6786727      1.5728199      188.66231      107.64031      181.88241     -309.47769     -203.5653      -166.6888      -67.592148     -42.604203      123.48994      3693608      
   1864000   300.59382      0.89601093     0.67950212     1.575513       188.60348      107.64595      181.90392     -132.19408      62.153952     -35.263631     -298.73154      52.539988      24.267558      3693086.1    
   1865000   300.49484      0.89571587     0.67622942     1.5719453      188.65601      107.66664      181.76985      1.4418758     -143.12918     -127.86697     -92.694298      25.009302      8.0733641      3692101.5    
   1866000   299.46578      0.89264847     0.67685265     1.5695011      188.61335      107.66473      181.93273     -232.52663     -123.65188     -14.557067     -103.99482      121.41548     -32.405783      3694509      
   1867000   300.82484      0.89669954     0.67892693     1.5756265      188.72798      107.6599       182.02368      90.973683      75.997015      38.231231      82.129016      110.39768      69.453542      3698436.4    
   1868000   299.5818       0.89299428     0.67815474     1.571149       188.66049      107.68048      181.97521      239.23724      79.119149     -70.140378     -45.008621      25.431133      124.3605       3696835.9    
   1869000   299.72476      0.89342043     0.67893613     1.5723566      188.74736      107.67716      181.85928     -21.051121      233.71851     -148.97939     -44.103575      85.482667      19.326474      3696067.9    
   1870000   300.75725      0.89649808     0.67968233     1.5761804      188.68612      107.69611      181.80866      297.40008      116.38994      63.759334     -175.12211     -127.77398      1.4588457      3694490.2    
   1871000   300.26469      0.89502984     0.67873669     1.5737665      188.61265      107.69374      181.95431     -138.36077      42.581221      262.99222     -19.727104     -8.9633979      41.661866      3695929.1    
   1872000   300.18887      0.89480385     0.67769987     1.5725037      188.64529      107.63846      182.03806      266.6988      -32.77498      -99.688867     -45.951613      9.600429       65.221894      3696371.9    
   1873000   300.34042      0.8952556      0.67808393     1.5733395      188.7167       107.65515      181.79091     -293.05905     -223.01979      243.77383      110.03861      40.636623      268.18665      3693323.2    
   1874000   300.20829      0.89486172     0.67726804     1.5721298      188.75572      107.65259      181.83439     -17.786591      41.581393     -8.8733058      90.830395     -43.432093      108.22606      3694882.2    
   1875000   300.71847      0.89638248     0.67960325     1.5759857      188.6788       107.62672      181.97149     -166.03256     -124.96315      63.723652     -128.17497      97.074123      81.857388      3695273.4    
   1876000   299.66831      0.89325214     0.67725793     1.5705101      188.70839      107.61598      181.95376     -46.520518      511.08698     -213.31868      70.849344     -66.427159      218.17725      3695124      
   1877000   300.6124       0.8960663      0.67777515     1.5738414      188.57493      107.65169      181.97255     -42.76496      -103.70619     -156.9867       154.58318      84.90551      -16.366909      3694117.3    
   1878000   299.58284      0.89299739     0.67654233     1.5695397      188.65406      107.70885      181.91549     -71.169906     -112.39552     -91.37694       102.26257     -12.169476      8.4283284      3696470.3    
   1879000   299.84792      0.89378753     0.67722776     1.5710153      188.64763      107.67889      181.91766      84.146924      35.0217        77.224683      7.6883304     -75.49508       87.668857      3695360.4    
   1880000   300.06571      0.89443673     0.67631837     1.5707551      188.71386      107.65432      181.92146     -168.91523     -40.574092      20.953277      53.186423     -84.395394      134.73222      3695891.2    
   1881000   300.03695      0.89435101     0.67693607     1.5712871      188.74368      107.59071      181.97193      182.28519      73.858885      3.7599953      221.97765     -108.7868       158.31932      3695315.8    
   1882000   300.45756      0.89560476     0.67723127     1.572836       188.60889      107.68078      181.98152     -348.71468     -234.92783     -5.7184762      3.7841112     -103.19604     -0.94559975     3695963.2    
   1883000   300.60079      0.89603171     0.68004938     1.5760811      188.76214      107.68424      181.91064     -84.644034      23.590777      103.01787      21.673905      36.902114     -75.019517      3697644.5    
   1884000   299.99777      0.89423421     0.67759936     1.5718336      188.68622      107.68779      181.81682      127.34909      35.993624     -113.64225      0.22196652     75.796355      167.11417      3694372.6    
   1885000   299.73956      0.89346454     0.67726627     1.5707308      188.62006      107.71631      181.91927      145.16194     -51.307414      122.90384      41.163972      22.291173      35.366823      3696136.9    
   1886000   300.67499      0.89625287     0.67849581     1.5747487      188.7302       107.69532      181.91458     -99.213937      33.425722     -164.01647     -201.65256     -20.216029      108.60817      3697479.1    
   1887000   300.03014      0.89433069     0.67783433     1.572165       188.74188      107.65909      181.80938     -106.18462      233.97168     -98.614751      5.9956185      65.60022       234.83339      3694326.5    
   1888000   299.69423      0.89332943     0.67918622     1.5725156      188.67426      107.66433      181.92358      93.596155      77.418278     -13.653624     -56.322324     -36.661216      113.35426      3695502.3    
   1889000   300.59819      0.89602394     0.67878924     1.5748132      188.67563      107.67548      181.96073      178.11662     -24.149613     -26.241582     -158.56898     -131.23877      41.806229      3696666.6    
   1890000   299.48039      0.89269201     0.67852696     1.571219       188.67177      107.64859      181.80895     -66.197509      222.39742      186.43744      153.8075       21.636424     -7.7312013      3692585.1    
   1891000   300.16197      0.89472365     0.67886701     1.5735907      188.70037      107.69098      181.95611      48.006732     -170.23763     -51.888379     -37.496304      38.732211      112.17166      3697589.9    
   1892000   299.77096      0.89355815     0.67718308     1.5707412      188.69949      107.69428      181.97435      9.8435167      630.53307     -61.142881      347.26826      26.675809      154.71529      3698056.3    
   1893000   300.73933      0.89644466     0.67725371     1.5736984      188.61036      107.65728      181.92111     -126.53061     -5.1772549      29.801943      118.20993     -22.019507      44.97424       3693958.7    
   1894000   300.01948      0.89429892     0.6762977      1.5705966      188.66488      107.62796      181.87425      113.91503     -129.93347     -3.8529959     -139.08256      39.532538      115.35171      3693068.8    
   1895000   299.77877      0.89358142     0.67809657     1.571678       188.6654       107.67563      181.90423      229.00178     -172.34227      3.9756602      270.11123      72.878035      31.158668      3695323.9    
   1896000   299.90027      0.89394358     0.67748565     1.5714292      188.59284      107.67374      182.03233      7.7808941     -395.10352     -15.463393      150.82304     -23.298963      128.20945      3696438.8    
   1897000   299.34328      0.89228329     0.67965844     1.5719417      188.7062       107.6809       181.98753     -41.251422      61.944878     -189.26822      190.46465     -131.9231       142.46185      3697996.1    
   1898000   300.69444      0.89631085     0.67643034     1.5727412      188.62353      107.6389       181.81942     -32.375087      34.671967     -77.093237      255.4345       41.099293      140.53163      3691521.3    
   1899000   300.02217      0.89430695     0.67686026     1.5711672      188.59225      107.66724      181.83849      116.17295      199.07554      298.29024      93.391371      75.621066      70.266371      3692268.3    
   1900000   300.54376      0.8958617      0.67613135     1.5719931      188.61697      107.65428      181.88571     -184.25978      41.789527     -63.727956      43.456847      74.863061      212.79288      3693266.6    
   1901000   299.47857      0.89268657     0.6771591      1.5698457      188.67557      107.64063      181.929       -150.76714     -49.963323      137.36755     -186.20273     -64.236405      26.79447       3694824.8    
   1902000   299.90308      0.89395196     0.6766428      1.5705948      188.66151      107.68983      182.00017      309.78336      14.208104      99.774292      166.39412      3.943874       25.952717      3697684      
   1903000   299.98401      0.89419318     0.6769931      1.5711863      188.60217      107.66483      181.9007       100.80272     -83.761118     -99.228338      150.4364      -57.739165      75.52703       3693643.3    
   1904000   299.94629      0.89408075     0.6780718      1.5721526      188.62765      107.70784      181.89551     -160.59313     -254.72586     -121.51082     -247.44702     -15.90123      -62.736766      3695512.3    
   1905000   300.59837      0.8960245      0.67807841     1.5741029      188.74397      107.72625      181.87443      124.55204     -247.45231      143.15145     -6.3431683     -64.267193      139.55603      3697994.6    
   1906000   299.07566      0.8914856      0.68035563     1.5718412      188.70993      107.62061      181.9366      -41.579335      256.27119      93.205797      164.51299      8.0258723      235.58054      3694964.7    
   1907000   300.2779       0.89506923     0.67788433     1.5729536      188.71942      107.6655       181.96156      135.1036      -22.077082     -51.942289      109.73543      113.6444       223.11212      3697198.8    
   1908000   299.74577      0.89348304     0.67634279     1.5698258      188.69913      107.67397      181.96774     -261.5748      -203.76529     -81.444991     -110.55859      81.129315      73.073265      3697217.9    
   1909000   300.20187      0.8948426      0.67735865     1.5722012      188.66128      107.68936      181.92915     -513.98868     -216.01572     -219.27217      16.717756     -55.059181      51.657534      3696220.3    
   1910000   299.32537      0.89222992     0.67893318     1.5711631      188.61946      107.70712      181.90005     -107.36        -40.240352     -60.789821     -87.275299     -34.594796      149.4712       3695419.2    
   1911000   299.73444      0.89344928     0.67830218     1.5717515      188.64572      107.70719      181.90615     -235.98089     -62.341605      59.548826     -55.853628     -47.825718      149.5417       3696060      
   1912000   299.75136      0.8934997      0.67702114     1.5705208      188.58984      107.69582      181.85545      119.94992      90.769734     -43.18983       74.45522       78.28147       268.46366      3693545.4    
   1913000   299.99114      0.89421444     0.67791699     1.5721314      188.77189      107.65502      181.98428     -132.4743      -201.47325     -6.8370818      131.82681     -1.5929451      22.175872      3698328.6    
   1914000   299.5004       0.89275164     0.67874796     1.5714996      188.69041      107.6871       182.00836     -41.914542      393.94023     -13.283619      47.720906      114.82265      172.19026      3698322.9    
   1915000   300.19322      0.89481682     0.6791229      1.5739397      188.6769       107.67578      181.93948     -89.510952      306.80384      56.686646     -76.852223     -62.962835      75.9389        3696270.3    
   1916000   300.03773      0.89435332     0.67675827     1.5711116      188.68838      107.71298      181.81279      151.25603      87.67321      -10.957079     -34.136717      55.185422      127.94555      3695197.4    
   1917000   299.52716      0.89283142     0.67748586     1.5703173      188.60048      107.66253      181.93137     -173.10348      286.38457      8.4453243      178.35487     -162.25911      51.426056      3694153.9    
   1918000   300.28271      0.89508357     0.67797419     1.5730578      188.72353      107.65512      182.00423     -16.703383      103.05892     -2.6888578     -16.393681     -13.761524      211.75074      3697789.9    
   1919000   300.52796      0.89581461     0.67767693     1.5734915      188.73029      107.6574       182.01547     -112.88936      13.312366     -77.984529      234.25593      17.104821      132.44213      3698229      
   1920000   300.23833      0.89495128     0.67864042     1.5735917      188.68478      107.65619      181.89744      257.53857      148.27815      122.27379      292.72287      85.099656      38.631878      3694898      
   1921000   299.9045       0.89395621     0.67779646     1.5717527      188.67683      107.6935       181.91786     -280.40636     -28.281998      32.817025     -73.646322     -67.153134     -83.775405      3696437.8    
   1922000   299.78758      0.89360768     0.67716167     1.5707693      188.66246      107.71128      182.03965      197.32607      81.751057      25.258071      125.15778      161.52937      159.51079      3699241.2    
   1923000   300.15461      0.89470171     0.67839939     1.5731011      188.65174      107.67323      181.97796      108.60348      64.153373      167.21366      41.680593     -38.760034      110.24897      3696471.4    
   1924000   300.00101      0.89424387     0.67697728     1.5712212      188.73086      107.63331      181.81333      6.2539464      209.27277     -118.23534      65.03612       11.790217      106.06536      3693306.4    
   1925000   300.13578      0.89464558     0.67832612     1.5729717      188.63413      107.67011      181.89284      130.88902     -198.79585     -43.710422      68.474365     -63.679052      116.47773      3694290.3    
   1926000   299.85173      0.89379889     0.67711604     1.5709149      188.59571      107.66252      181.97586      167.12553      138.05323      17.796321      96.690674     -20.142226      22.085613      3694963.5    
   1927000   299.46648      0.89265053     0.67833218     1.5709827      188.61431      107.70845      181.93521      163.53989     -273.9671      -37.416241      85.351035      63.892703      68.365092      3696078.3    
   1928000   300.56382      0.8959215      0.68005201     1.5759735      188.7108       107.71379      181.83968      223.2587       67.949197      82.140254     -43.621455      113.50439      20.403224      3696210.6    
   1929000   299.59274      0.89302688     0.6797336      1.5727605      188.6773       107.6939       181.9827       99.635502      143.8796       153.69669      96.237719     -7.9594379      147.42659      3697778      
   1930000   300.56426      0.89592281     0.67617056     1.5720934      188.77003      107.65583      181.91824     -193.93317      37.150826      56.022288     -150.60521     -14.768082      6.4612285      3696977.7    
   1931000   299.69001      0.89331683     0.67797701     1.5712938      188.75828      107.65395      181.92799     -51.263555     -256.99782      142.36545      138.57013     -3.4123797      76.208377      3696881.4    
   1932000   299.83473      0.89374821     0.67831729     1.5720655      188.6355       107.64569      181.93221     -158.63007      209.73203      19.892038      29.332085      41.787251      177.52556      3694278.6    
   1933000   300.49657      0.89572104     0.67858534     1.5743064      188.67533      107.64868      181.89325      227.09052      217.94681      216.22085     -242.56644     -51.310494      149.64926      3694370.1    
   1934000   300.13326      0.89463808     0.67890004     1.5735381      188.63037      107.69375      182.04279     -300.91692      2.7010507     -193.89238      214.65017     -98.033196      84.676554      3698073.9    
   1935000   300.22165      0.89490157     0.67736944     1.572271       188.66844      107.65256      181.91153     -25.277787      44.389762      15.717358     -13.067624      29.459019      113.66677      3694739.6    
   1936000   300.55842      0.89590539     0.67838835     1.5742937      188.68128      107.66285      181.80148      303.70953      226.44927      120.45583     -90.603501     -67.562082      27.222958      3693108.8    
   1937000   300.06645      0.89443893     0.67952341     1.5739623      188.62566      107.70467      182.03911      200.60389      42.718941      185.09179     -188.46657      116.56366     -20.241708      3698282      
   1938000   299.9123       0.89397944     0.67830025     1.5722797      188.66732      107.68852      181.97915     -103.28019     -144.98245     -83.046307     -156.17814     -16.571369      116.17415      3697325.7    
   1939000   300.30348      0.89514548     0.67873034     1.5738758      188.59939      107.67839      181.96583      179.66239      84.875801      185.1003       208.21145     -125.97947      118.72733      3695376.4    
   1940000   299.79145      0.89361921     0.67593074     1.5695499      188.64029      107.70242      181.85681     -574.00968     -196.89038      139.34367     -109.20992     -107.77126      114.71482      3694787.5    
   1941000   299.89627      0.89393167     0.67882413     1.5727558      188.66761      107.67378      182.00943      83.596028     -215.84784      149.82818     -91.866353      94.003753      72.200364      3697440.5    
   1942000   299.24607      0.89199353     0.67848318     1.5704767      188.75741      107.67237      182.01301     -358.57567     -38.475525     -233.74683      91.13735       117.2564       130.83946      3699224.7    
   1943000   300.12306      0.89460766     0.67665999     1.5712677      188.69823      107.68274      181.86505     -1.5742003      127.12267      148.67248     -70.268945      138.40386      68.846839      3695414.5    
   1944000   300.15077      0.89469027     0.67880063     1.5734909      188.68792      107.70392      181.93167      220.54117     -21.678388      127.72833      48.070835      46.872148      221.37363      3697293.6    
   1945000   299.60989      0.89307801     0.6793537      1.5724317      188.68524      107.68456      182.04296     -281.85719      134.8968       85.479807      130.55836      65.275398      43.742535      3698837.3    
   1946000   299.74752      0.89348828     0.67909857     1.5725868      188.68428      107.72261      182.0018       312.50602      88.43548      -58.367674     -134.90456      82.422355      109.20866      3699288.9    
   1947000   300.12437      0.89461157     0.67871646     1.573328       188.6054       107.70678      181.98976     -9.13827       -132.16207      28.547317      66.353176      37.419523      204.2696       3696954.5    
   1948000   299.93518      0.89404764     0.67828783     1.5723355      188.72135      107.65115      181.91211      26.613181      49.791829      87.60318      -87.233115     -29.737299      136.47531      3695739.3    
   1949000   300.11645      0.89458796     0.67802731     1.5726153      188.67481      107.67716      181.89666      15.788185      368.28894     -7.8561523     -157.14198      32.641718      116.75885      3695406.7    
   1950000   300.01041      0.89427189     0.67844146     1.5727133      188.6053       107.68378      182.03963     -109.12973     -75.090889     -12.796454      57.583962      300.49534      276.60125      3697175.8    
   1951000   300.11176      0.894574       0.67801107     1.5725851      188.67967      107.68455      181.99132      65.260204     -82.544497     -218.91829      103.69643     -106.33843      161.48262      3697678.7    
   1952000   300.29504      0.89512033     0.6775307      1.572651       188.79977      107.66184      181.98867      57.598014     -334.88184      64.805272      1.8460405      70.247368      98.641378      3699198.3    
   1953000   300.22017      0.89489715     0.68010388     1.575001       188.60117      107.68852      182.10173      133.12576     -139.32917      47.196992     -129.59103      51.568355      235.14062      3698519.2    
   1954000   299.96601      0.89413953     0.67876174     1.5729013      188.63306      107.68938      181.95558      32.38078       119.35763     -65.164919      200.6166       15.460138      139.58968      3696205.3    
   1955000   300.22317      0.89490609     0.67666142     1.5715675      188.70379      107.68457      182.00589     -52.706376      101.69366     -45.348755     -24.185404      24.67062       125.01945      3698448.1    
   1956000   300.95682      0.89709294     0.67769889     1.5747918      188.61188      107.62605      181.99347      87.058035      21.089902      50.280005     -40.928752     -250.78882      121.90307      3694386.1    
   1957000   300.18429      0.89479018     0.67954635     1.5743365      188.72714      107.69156      181.93834      52.45954      -242.50942      117.96646      84.046077     -17.557534      77.29354       3697773      
   1958000   299.69896      0.89334352     0.67720218     1.5705457      188.66092      107.67364      181.86006     -71.620253     -83.983922      66.020115      13.496151      94.809924      192.77802      3694270.4    
   1959000   300.16518      0.89473323     0.67994442     1.5746776      188.69926      107.70258      181.95909      299.73188     -216.34649      87.858087     -132.54675      58.793783      104.23762      3698026.7    
   1960000   300.01211      0.89427697     0.67875665     1.5730336      188.62823      107.71483      182.05298     -32.627998     -68.30323      -217.17348      91.080958      70.792057      327.31268      3698962.9    
   1961000   299.93832      0.89405701     0.67981515     1.5738722      188.6919       107.71034      181.98594     -216.9501      -16.657568     -81.719549      17.134662      53.028093      145.9007       3698695      
   1962000   299.87242      0.89386058     0.67843423     1.5722948      188.69878      107.62076      182.0099      -368.01586      199.85307      207.98714      99.904888     -35.023275      127.41101      3696239.9    
   1963000   299.88247      0.89389053     0.67912978     1.5730203      188.58436      107.65173      181.94894     -41.255914      266.88091      85.97152      -102.66487     -113.05129      27.156046      3693824.2    
   1964000   300.07501      0.89446446     0.67894027     1.5734047      188.62669      107.64171      181.98986      381.38031      117.70706     -185.37867      68.314519      88.827258      185.6178       3695140.3    
   1965000   299.58482      0.89300328     0.67973682     1.5727401      188.75275      107.66768      181.96563      212.11693      177.0558      -243.39576     -123.03702      47.637591      139.16774      3698009.2    
   1966000   300.3984       0.89542842     0.67852397     1.5739524      188.59444      107.69117      181.94072      154.5386      -38.621747     -182.22498     -325.82213      94.969657      160.21093      3695207.7    
   1967000   299.96487      0.89413614     0.6784045      1.5725406      188.60046      107.68061      181.95644      13.652578      67.02091      -200.51792      242.99797      14.558183      181.62827      3695282.9    
   1968000   300.6939       0.89630925     0.67717483     1.5734841      188.65123      107.73781      181.84368     -188.60265     -233.799        90.098879     -16.501001      43.697123      270.33063      3695949.3    
   1969000   299.84857      0.89378949     0.67643558     1.5702251      188.65987      107.66154      182.02549      41.509123      47.089347     -115.42556     -98.972565     -13.895401      173.16013      3697194.8    
   1970000   300.05871      0.89441587     0.67792156     1.5723374      188.74215      107.68561      182.02957      77.878215     -26.440559     -52.872057     -12.212517      79.176308      115.14394      3699717.2    
   1971000   299.67512      0.89327244     0.67753105     1.5708035      188.80044      107.69067      181.96769     -522.33642     -261.94716     -70.165997      27.357152     -1.4821453      76.849786      3699775.5    
   1972000   300.19836      0.89483213     0.67937573     1.5742079      188.7198       107.65495      181.99635      166.62663     -254.89613      9.3301187      193.49364     -8.9988736      113.34363      3697550.8    
   1973000   300.41705      0.89548399     0.6784178      1.5739018      188.8098       107.6907       181.94627     -275.40316      255.26093      89.104547     -355.51218     -43.143246      95.359034      3699524.3    
   1974000   299.85802      0.89381763     0.67898893     1.5728066      188.67263      107.72646      182.02895      55.077381     -260.53223     -125.56628      137.2943       19.809912      110.9918       3699744.8    
   1975000   299.37767      0.89238582     0.68034612     1.5727319      188.61429      107.72249      181.97615      283.12335      23.5015        75.693124      59.493767     -140.43268      216.90219      3697391.5    
   1976000   300.12827      0.8946232      0.67889176     1.573515       188.59007      107.68171      181.971       -16.472886      167.89372     -77.028499      53.05694       47.354409      95.330129      3695413      
   1977000   300.06541      0.89443584     0.67811685     1.5725527      188.70156      107.70047      182.00245     -127.82301      16.597244     -86.657216      102.14899      78.18707      -24.515788      3698880.7    
   1978000   299.91347      0.89398293     0.67869311     1.572676       188.65878      107.70636      181.99955     -121.99812     -370.88496      160.96711     -224.44504      27.773504      39.555882      3698185.5    
   1979000   300.4923       0.8957083      0.67820178     1.5739101      188.66728      107.69062      182.0317       423.67186     -17.500458     -72.765088     -18.129256     -71.710883      94.948538      3698464.8    
   1980000   299.9956       0.89422773     0.67719059     1.5714183      188.67725      107.65855      181.96398      93.210587     -205.73189      146.86915      115.37306     -25.859648      37.762295      3696183.2    
   1981000   299.57159      0.89296386     0.68046651     1.5734304      188.74339      107.71282      182.06207     -169.49328     -159.34916     -260.2012       82.120799     -45.061498      117.44673      3701337      
   1982000   299.94222      0.89406863     0.67893174     1.5730004      188.67751      107.71067      181.90191     -72.875368      72.892286      0.61039341     55.911439     -67.683382      65.854177      3696716.5    
   1983000   300.00541      0.89425698     0.67833667     1.5725937      188.68635      107.71068      181.9064      -45.873445     -16.109675      2.7219086      152.5185       121.44027      156.5778       3696981      
   1984000   299.86992      0.89385312     0.67968336     1.5735365      188.74796      107.71353      182.05024      57.565585      98.351929      191.55646      133.61143      43.294237      188.87661      3701210.2    
   1985000   300.12697      0.89461933     0.67762776     1.5722471      188.68923      107.72161      182.03324      224.47803     -0.507461      -83.564496      86.092088      80.771876      324.88238      3699990.7    
   1986000   299.8278       0.89372757     0.679261       1.5729886      188.77209      107.64587      181.9577      -107.42384     -30.333063     -101.85867      242.0942       78.486827      285.06716      3697478      
   1987000   299.99672      0.89423107     0.6793803      1.5736114      188.75489      107.65649      182.02527     -67.880548      191.71267      208.94559     -83.559673      80.88917       83.174281      3698878.8    
   1988000   300.11684      0.89458913     0.67805522     1.5726443      188.75851      107.64356      181.88176      338.18731      178.49233      175.33237     -47.995603      135.5128       220.37911      3695589.6    
   1989000   299.34836      0.89229846     0.67850209     1.5708005      188.69687      107.67311      181.92297     -117.37276      30.126563     -64.51362       122.61138     -14.811709      144.02483      3696234.5    
   1990000   300.26089      0.89501852     0.67571599     1.5707345      188.76602      107.66538      182.0367      -163.28665      199.81098      31.063994     -87.002434     -43.561734      132.97497      3699634.8    
   1991000   299.34531      0.89228935     0.67972312     1.5720125      188.6711       107.68865      182.06748      374.66349      241.8944      -24.353147      89.72749       49.828069      84.674962      3699199.1    
   1992000   299.69369      0.89332781     0.67801071     1.5713385      188.69181      107.67741      181.97963     -69.131926     -155.07498     -98.656142     -222.12135      109.21139      212.9427       3697433.9    
   1993000   300.09444      0.89452238     0.67938828     1.5739107      188.70999      107.70757      181.95991      104.42495      14.080851     -3.7142288     -1.1551954      61.402659      109.97109      3698425.2    
   1994000   300.3903       0.89540425     0.67861135     1.5740156      188.668        107.70603      181.98072     -63.696808      121.74374      72.617316     -11.872001     -38.464488      235.91173      3697972      
   1995000   300.67569      0.89625495     0.67900654     1.5752615      188.70096      107.70803      182.11927      73.890835      119.13066     -101.18678     -30.902587      95.773993      161.02996      3701503      
   1996000   300.0574       0.89441197     0.67765371     1.5720657      188.72823      107.69542      181.98878     -284.5504      -163.63759     -161.64349     -26.993366     -86.140838     -5.726791       3698951.9    
   1997000   299.54469      0.89288368     0.67725914     1.5701428      188.73572      107.65405      181.94098     -60.310933      99.39421      -51.757604      17.131474     -47.679337      82.333664      3696706.6    
   1998000   300.26172      0.895021       0.67914005     1.574161       188.7401       107.72765      181.8617      -276.72748      102.1249       69.164995     -48.805918      60.20953       209.05408      3697707.9    
   1999000   299.85121      0.89379736     0.67664826     1.5704456      188.69288      107.68894      182.02891      476.08286     -72.729995      46.890605      127.50316      70.700983      155.21677      3698852.3    
   2000000   300.19476      0.89482141     0.68071178     1.5755332      188.68615      107.60123      182.05291      18.514249     -41.994964     -64.890934     -77.748877      93.394929      89.692959      3696195      
   2001000   300.15949      0.89471627     0.67772323     1.5724395      188.70641      107.66312      182.03651      59.72188       344.92643      17.551515     -172.94375      9.6176645      136.2958       3698384.9    
   2002000   299.52219      0.8928166      0.6792647      1.5720813      188.78908      107.71272      182.0193       104.19485     -203.89029     -38.443951     -75.208768      23.686158      139.37237      3701360      
   2003000   300.01755      0.89429316     0.67906044     1.5733536      188.66662      107.70813      181.99889      172.59374      42.258293      214.88193      198.55345      82.44334       133.68464      3698386.7    
   2004000   300.31416      0.8951773      0.6775187      1.572696       188.60939      107.7203       181.93905      235.61263     -65.544806     -26.316458      183.56168      178.08266      194.24911      3696466.5    
   2005000   300.4104       0.89546419     0.68002891     1.5754931      188.6781       107.71579      182.05893      38.839623      198.4722      -36.443934      57.799789     -66.170503      256.79754      3700094.8    
   2006000   299.56999      0.89295909     0.67992094     1.57288        188.69566      107.73016      182.03865      187.58479     -411.49193      121.9298       25.0382        93.143397      303.43256      3700520.3    
   2007000   299.88507      0.89389828     0.67900818     1.5729065      188.67952      107.72191      181.97466     -27.542051     -11.653712      40.558051      250.71289      8.3012273      174.69055      3698620.2    
   2008000   299.78148      0.8935895      0.68053206     1.5741216      188.81068      107.69768      181.93779     -0.3429439      160.06294      203.76673     -164.39676     -46.04045       143.33418      3699608.9    
   2009000   299.32205      0.89222002     0.67974497     1.571965       188.7793       107.71061      182.02469      40.841298     -48.93007      -14.976878      20.192574      62.685976      272.70957      3701205      
   2010000   299.60448      0.8930619      0.68111757     1.5741795      188.79872      107.73076      182.10409      8.3498217     -227.8911      -105.82987      39.734582     -25.844231      167.50746      3703893.5    
   2011000   299.52247      0.89281744     0.6780638      1.5708812      188.6073       107.67701      181.96767     -134.98806     -167.23309      23.010504     -216.88463     -13.879482      239.68495      3695521.5    
   2012000   299.875        0.89386825     0.67694522     1.5708135      188.60944      107.66595      181.95773      38.739827      20.079679     -241.6489       90.507095      47.153672      137.82774      3694981.7    
   2013000   300.13134      0.89463237     0.67992776     1.5745601      188.67888      107.71631      182.05491     -158.85576     -45.831842     -238.3622       90.153318     -52.409536      167.14334      3700046.2    
   2014000   299.72219      0.89341277     0.67909669     1.5725095      188.60888      107.67023      182.04538     -83.834338     -333.38594     -133.59447      101.80881      67.99643       163.2698       3696897.8    
   2015000   300.21894      0.89489348     0.6797293      1.5746228      188.71148      107.67424      182.07344      28.536286      53.33086       220.56832      255.79104      141.05595      137.12232      3699616.7    
   2016000   299.59837      0.89304367     0.67721852     1.5702622      188.64541      107.70429      182.00145     -215.67136     -119.92315      28.961971     -16.200976      99.833825      299.31498      3697890.9    
   2017000   299.62607      0.89312625     0.67936242     1.5724887      188.72882      107.70736      182.00196      470.7338       205.84173      5.7311773      24.100524     -5.3652637      213.90268      3699641.6    
   2018000   300.29482      0.89511965     0.67806257     1.5731822      188.65941      107.7182       181.96722     -74.919623      31.411248      88.01335       93.806153      16.718158      129.05066      3697947.3    
   2019000   299.76889      0.89355198     0.67971437     1.5732664      188.66428      107.74016      182.09449     -117.46209     -38.087297     -106.66156      87.258611     -74.29182       219.84661      3701383.6    
   2020000   299.67775      0.8932803      0.6785529      1.5718332      188.6838       107.69861      182.0056      -309.94604     -27.380302     -154.99758      26.540158      64.979104      215.88258      3698532.9    
   2021000   299.8546       0.89380744     0.67871104     1.5725185      188.73046      107.70439      181.99981      253.47617      43.623935      184.91407      117.97029      149.20809      121.1774       3699528.1    
   2022000   300.32834      0.89521958     0.67967025     1.5748898      188.77455      107.75129      181.93946     -205.97613     -279.09198     -77.60267      -220.60294      10.588095     -39.615886      3700776      
   2023000   300.41861      0.89548867     0.67857767     1.5740663      188.68153      107.70201      182.06358      50.394918     -211.13323      77.640691     -198.17225     -166.25166      238.46705      3699783.1    
   2024000   300.15535      0.89470394     0.67985584     1.5745598      188.68712      107.6834       182.11635      171.70792      152.32519     -128.71472      22.114565     -63.471312      179.45196      3700325.6    
   2025000   300.42965      0.89552157     0.67828928     1.5738108      188.68155      107.68635      181.97696     -394.77111     -101.64522     -63.954609     -101.95388      151.69377      214.521        3697485.6    
   2026000   299.94887      0.89408845     0.67708578     1.5711742      188.70541      107.68431      181.97236      177.9965       83.814364      321.77702      12.482818      12.275959      206.28982      3697789.7    
   2027000   299.85248      0.89380114     0.67932936     1.5731305      188.659        107.70252      182.11891     -87.701913     -32.084352     -48.079606     -125.88215      50.176745      259.51901      3700483.1    
   2028000   300.15716      0.89470934     0.67940471     1.574114       188.71296      107.70378      182.12384     -87.890493      388.29182     -165.62323      87.497017      76.757482      307.97872      3701684.9    
   2029000   299.80404      0.89365674     0.67761474     1.5712715      188.63737      107.72838      182.07035      156.16271     -90.159181      72.332022      162.56439      111.28742      94.22187       3699960.3    
   2030000   300.19557      0.89482382     0.68037751     1.5752013      188.65783      107.73608      181.99612     -133.40998      33.639075      69.930561      169.8497       100.4746       71.047495      3699117.7    
   2031000   300.21695      0.89488756     0.68062889     1.5755164      188.62774      107.66267      182.05459      79.915202      47.075397     -120.86262      15.672714      18.622667      204.75618      3697194.8    
   2032000   300.58657      0.89598932     0.67965733     1.5756466      188.61074      107.6726       182.17112      136.65512     -54.903518     -7.5173957      124.58435     -13.370794      158.43385      3699569.2    
   2033000   299.93485      0.89404667     0.67725706     1.5713037      188.67445      107.68696      182.01894      171.37874      178.0006       83.063331      22.010766      9.768809       105.47201      3698220.3    
   2034000   299.54252      0.89287721     0.67964332     1.5725205      188.8087       107.71297      182.08136      107.91887     -37.482448      153.00407      74.51926       13.926309      239.5457       3703015.2    
   2035000   299.74433      0.89347876     0.68008789     1.5735667      188.79444      107.70836      182.01048     -71.779257      195.76831      93.680394     -138.77443      11.557182      337.79736      3701135.7    
   2036000   300.15648      0.8947073      0.6794262      1.5741335      188.77556      107.70665      181.94759     -126.83998      96.896327      112.64675      138.58024     -29.141163      304.10258      3699428.1    
   2037000   299.68119      0.89329054     0.67791219     1.5712027      188.77239      107.7161       182.0381      -85.3066        331.84046     -69.165702     -66.000291     -185.78081      26.00276       3701530.9    
   2038000   300.40706      0.89545424     0.67975038     1.5752046      188.71149      107.71889      182.12186     -247.38248     -158.82218     -192.06193      10.458002      32.530915      174.83437      3702135.3    
   2039000   300.768        0.8965301      0.67939692     1.575927       188.6842       107.72499      182.12699      61.357987      104.70884     -46.409449     -167.28417     -141.48179      162.77252      3701913.8    
   2040000   300.49526      0.89571714     0.67991695     1.5756341      188.80794      107.68279      181.96219     -84.852006      214.83439      88.662875     -29.772112     -65.032972      117.70613      3699539.8    
   2041000   300.65061      0.89618018     0.67846331     1.5746435      188.75685      107.65412      181.94891     -89.168575      94.177226     -62.256015      307.10024      34.89597       171.2478       3697284.2    
   2042000   299.97126      0.89415519     0.67945425     1.5736094      188.65443      107.68597      182.04361      137.28843      67.992892     -177.54687      40.74891       155.85109      103.19311      3698295.2    
   2043000   299.79229      0.89362172     0.67830332     1.571925       188.71478      107.74057      182.10118     -96.998798     -472.02541     -51.034435      98.291022      98.890342      182.41932      3702524.7    
   2044000   299.70353      0.89335715     0.6803061      1.5736633      188.77265      107.73692      182.12535      33.196283      43.441417     -137.51566      49.160431     -24.256511      256.23365      3704025.9    
   2045000   299.75362      0.89350646     0.67973653     1.573243       188.73495      107.69469      181.94147      132.5031       163.18326     -25.427198      15.929638     -142.87329      343.11269      3698097.2    
   2046000   300.23553      0.89494293     0.67972887     1.5746718      188.78329      107.688        182.06443      220.34867     -47.85573       151.64581     -154.71623      60.763702     -8.5511934      3701314.5    
   2047000   300.16323      0.89472742     0.68112857     1.575856       188.6777       107.70248      182.08329     -145.1674      -157.68036     -78.881129     -122.2367       50.662553      268.61402      3700124.9    
   2048000   300.27202      0.89505169     0.67877014     1.5738218      188.72986      107.67934      182.07298     -140.48531      0.55645199     47.85155       29.313832     -125.01876      267.20219      3700143.1    
   2049000   299.87203      0.89385939     0.680024       1.5738834      188.78669      107.68833      182.01254      52.012843      162.69337     -143.33749      47.670971      104.44698      283.75074      3700337.4    
   2050000   299.56801      0.89295319     0.68081416     1.5737673      188.75402      107.71615      182.12444     -9.0517693     -23.416238     -126.23511      20.08924       55.755154      157.69877      3702928.1    
   2051000   300.7073       0.89634917     0.678803       1.5751522      188.61808      107.77926      182.07305     -8.9200676     -88.582043      57.256874     -135.53825     -123.11003      102.35571      3701384.4    
   2052000   300.19997      0.89483692     0.68118409     1.576021       188.68781      107.71562      182.02937     -132.95178     -155.0252       30.345026     -25.209009     -122.88982      145.84912      3699678.5    
   2053000   300.15695      0.8947087      0.67802846     1.5727372      188.62364      107.7438       181.99935      142.17864     -65.847209      48.908521      121.66638      27.978319      160.61309      3698777.8    
   2054000   300.2688       0.8950421      0.67986825     1.5749103      188.62268      107.72827      182.0643      -234.97264     -96.824388     -91.366009      1.9103318      19.081225      236.10878      3699545.6    
   2055000   300.25259      0.89499379     0.67773231     1.5727261      188.74069      107.67747      181.97746      340.77186      295.06846      95.831479      35.315084      135.91191      195.18097      3698350      
   2056000   300.00869      0.89426678     0.67947243     1.5737392      188.67942      107.73115      182.01646      59.087801     -574.91261      19.026189     -344.48441     -13.497403      105.36222      3699785      
   2057000   299.91083      0.89397506     0.67937472     1.5733498      188.63613      107.70573      182.04499     -13.22233       119.0158      -52.124184      51.706653      85.099364      133.21123      3698643.2    
   2058000   300.14253      0.89466573     0.68075559     1.5754213      188.68868      107.71419      182.15968      76.683213     -265.00312      105.10908     -32.555057     -126.95299      93.093515      3702294.9    
   2059000   299.41015      0.89248263     0.67891673     1.5713994      188.74642      107.71434      182.17181     -323.63096      5.9241813     -37.274388     -176.1532       180.35789      238.04359      3703679.7    
   2060000   299.57524      0.89297474     0.68093893     1.5739137      188.69608      107.7437       182.01523     -201.2772      -442.18073      243.08522     -65.354298      60.668118      269.44006      3700517.9    
   2061000   300.43179      0.89552793     0.67970858     1.5752365      188.71812      107.70141      181.95088     -4.9236621     -57.439418      8.9794872      109.46536      43.693678      314.42711      3698189.6    
   2062000   299.84166      0.89376889     0.67993046     1.5736993      188.81032      107.67918      182.04531      135.85565      52.510165      59.336356      105.25754      3.0365093      188.4046       3701152.5    
   2063000   300.12343      0.89460879     0.67850187     1.5731107      188.70949      107.68923      182.08669      108.71539     -257.32834     -85.478328      174.99932      36.017046      402.36776      3700361.9    
   2064000   300.50979      0.89576044     0.67893709     1.5746975      188.59679      107.72405      182.09452     -113.61481     -110.79941      267.60925     -158.98275      41.194868      85.988956      3699506.7    
   2065000   300.47812      0.89566603     0.68037778     1.5760438      188.74522      107.68132      182.06996      109.15923     -59.41461       94.761197      29.389876      12.772307      60.263136      3700450.9    
   2066000   300.61206      0.8960653      0.67869185     1.5747572      188.82801      107.70843      182.01478      50.104157      301.21447      74.629851      39.167845      11.711093      177.74509      3701883.7    
   2067000   300.67764      0.89626078     0.6820874      1.5783482      188.66281      107.74048      182.21782      209.06111      163.61925      228.12313     -60.709705     -133.77335      188.58782      3703872.9    
   2068000   300.51549      0.89577743     0.68123462     1.5770121      188.66202      107.75363      182.0783       189.85502     -216.74652     -82.995189     -316.90261     -39.229708      56.808711      3701472.9    
   2069000   299.23045      0.89194699     0.68094344     1.5728904      188.69821      107.72387      182.13541      121.21446     -230.20934     -33.82667      -67.704151      114.45174      46.644139      3702321.3    
   2070000   300.01385      0.89428214     0.68113115     1.5754133      188.81766      107.75115      182.01368     -416.63012     -41.412583      142.37794     -37.662023      98.649267      155.63741      3703126.7    
   2071000   299.83645      0.89375335     0.6820975      1.5758508      188.76646      107.70165      182.02655      209.52288      320.49843      114.79124     -45.34877       13.172217      167.78448      3700683.3    
   2072000   299.73867      0.89346188     0.67828996     1.5717518      188.72464      107.70023      182.13549      250.22855      173.45671      18.716238     -122.26637     -4.7558242      247.84414      3702029      
   2073000   299.87576      0.89387052     0.67838891     1.5722594      188.67999      107.68959      182.14441      11.886941      115.30126     -127.99985     -201.02785      21.549897      131.17178      3700968.7    
   2074000   299.27294      0.89207363     0.68038199     1.5724556      188.70115      107.68091      182.1538       85.844786      328.32776     -18.992928     -37.899756      22.979384      185.37873      3701276.3    
   2075000   299.81673      0.89369457     0.67956635     1.5732609      188.73966      107.68183      182.10813      336.80733      259.54795      14.616676      68.704009     -79.456819      158.53876      3701135.3    
   2076000   299.70295      0.89335541     0.67953095     1.5728864      188.69608      107.70246      182.03319      188.06201      182.68313      105.64905      79.681924      31.47632       252.84041      3699466.4    
   2077000   299.62488      0.89312269     0.67904878     1.5721715      188.72383      107.6993       182.12205     -162.85144      291.10449      96.70117      -132.12636      62.656387      178.65517      3701708      
   2078000   299.63276      0.8931462      0.67898962     1.5721358      188.68901      107.70714      182.11751      177.33639      157.73112     -107.96482      64.513611      80.313191      154.78815      3701202      
   2079000   300.45289      0.89559083     0.67634568     1.5719365      188.65986      107.68521      182.10542     -63.669463     -239.39458      261.74674     -8.384945      -44.688368      208.63032      3699631.4    
   2080000   299.39639      0.89244162     0.68032731     1.5727689      188.73239      107.69812      182.02         58.281272      6.1382072      7.6023283      274.14751     -73.927931      211.46019      3699761      
   2081000   299.79963      0.89364358     0.68004863     1.5736922      188.75799      107.71986      182.00175     -303.14949      102.02634      31.697468      61.161666      65.010946      243.61016      3700638.5    
   2082000   300.40869      0.89545907     0.67971117     1.5751702      188.7828       107.70841      182.01417      7.8695961     -242.26303      205.46282      153.92041      42.311864      163.42376      3700984.3    
   2083000   300.20735      0.89485891     0.68001042     1.5748693      188.76008      107.67755      182.08389      70.747264     -8.7602649     -45.190028      117.24751      43.614989      197.8553       3700895.6    
   2084000   299.81994      0.89370414     0.67728949     1.5709936      188.77749      107.61788      182.0928       207.58105      39.912427      54.771242     -79.767226      102.15011      283.80207      3699366.9    
   2085000   300.31887      0.89519134     0.67788847     1.5730798      188.82242      107.63836      181.98522      404.95363     -5.375075       45.115701      65.732644     -103.10469      86.059933      3698765.3    
   2086000   300.77482      0.89655044     0.68033305     1.5768835      188.77258      107.70906      182.08377      241.69536      171.23873      69.929702     -82.342746      161.39097      240.86374      3702221.4    
   2087000   300.21114      0.89487022     0.67926294     1.5741332      188.68157      107.65884      182.05962     -14.913546     -86.527405     -92.819697      42.328123     -47.293166      274.91694      3698220.8    
   2088000   300.8905       0.89689526     0.68010279     1.576998       188.69989      107.70061      181.99916     -62.798631     -137.66745     -30.474634     -132.11252     -119.80572      280.68488      3698785.7    
   2089000   299.50487      0.89276498     0.67931371     1.5720787      188.6338       107.73517      182.06249      11.685295     -428.78923     -51.603334      261.62769      9.7565089      263.52545      3699964      
   2090000   299.98123      0.8941849      0.67988372     1.5740686      188.67495      107.69427      182.10909      279.85086      141.18408     -24.800748      186.02207     -39.649844      206.26438      3700313      
   2091000   299.6584       0.89322263     0.67854681     1.5717694      188.69856      107.65182      182.00868      175.12305     -234.93173     -85.821069      128.80146      111.9459       255.38279      3697277.8    
   2092000   299.98132      0.89418517     0.67916447     1.5733496      188.80526      107.66142      182.03054      265.90936     -20.853698      236.82168     -71.199443      58.837801      275.58494      3700142.5    
   2093000   299.37379      0.89237424     0.68087346     1.5732477      188.70111      107.6608       182.07002     -158.5591      -105.94841      44.607096     -87.666887     -2.4585687      320.25664      3698882.3    
   2094000   299.85533      0.89380963     0.67910414     1.5729138      188.76553      107.68927      182.00654      175.72585      76.670499      80.053374     -140.39942      0.036784067    160.15075      3699832.9    
   2095000   299.12991      0.89164728     0.67930282     1.5709501      188.75116      107.64222      182.13462     -92.463559      160.86221     -215.91416     -69.844207      41.635396      138.88177      3700537.1    
   2096000   300.49351      0.89571193     0.68109004     1.576802       188.65508      107.66822      182.08911     -58.741891      93.796934     -85.994892      56.050368      4.2150179      39.909726      3698622.6    
   2097000   300.68754      0.89629028     0.67957275     1.575863       188.6804       107.66225      182.02554      55.978246     -9.6693895     -11.690849     -11.440856     -149.6682       158.80271      3697622.4    
   2098000   300.26409      0.89502807     0.67964029     1.5746684      188.76622      107.68939      182.0514      -186.10964     -183.33301     -121.11908      17.139205      59.343177     -30.946626      3700762.8    
   2099000   300.17157      0.89475228     0.67840357     1.5731558      188.7131       107.67635      182.11395      46.56672       42.163734     -347.05276     -98.519571      48.54498       250.89667      3700544.1    
   2100000   300.10408      0.89455111     0.67888496     1.5734361      188.80096      107.68971      181.99419     -198.51632     -36.018844     -27.032724     -22.188809      47.949716      217.95364      3700291.2    
   2101000   300.10241      0.89454611     0.68177637     1.5763225      188.82486      107.66726      182.11589     -250.13541     -243.8562       53.658214      9.425914      -146.56141      163.24415      3702462.6    
   2102000   299.51176      0.89278551     0.67839644     1.5711819      188.79034      107.68555      182.09963     -21.57163       288.24066      17.923131      101.00171      163.0892       28.945715      3702083.9    
   2103000   300.55234      0.89588726     0.67883401     1.5747213      188.69812      107.72007      182.19299     -135.01108      147.35642      96.352868     -117.76776     -82.797765      273.06833      3703359.2    
   2104000   300.49346      0.89571177     0.67911263     1.5748244      188.70658      107.68365      182.09611     -150.09339     -96.900259     -19.591586      316.98907      186.47039      117.95076      3700304.6    
   2105000   300.22442      0.89490982     0.68016206     1.5750719      188.70083      107.66664      182.00531     -117.44113     -280.88943      111.75042      14.469112      5.5259716      304.33782      3697762.8    
   2106000   299.60026      0.89304933     0.67884285     1.5718922      188.6948       107.65312      182.09905     -293.54398     -159.96557     -107.45296     -71.875586      40.473691      29.994819      3699084.5    
   2107000   300.49561      0.89571818     0.67791868     1.5736369      188.73079      107.65128      182.01031      37.802379      445.99263     -116.02887     -91.99734       87.506598      95.95316       3697924      
   2108000   299.84567      0.89378084     0.68135052     1.5751314      188.82511      107.65315      182.13848      174.16767      22.771838     -84.848796      103.72784     -33.13851       245.25621      3702441.6    
   2109000   300.74085      0.8964492      0.67756771     1.5740169      188.72688      107.66762      182.1043      -19.846819      40.450374     -23.476042     -19.523003      85.163809      184.59535      3700318.2    
   2110000   299.90033      0.89394376     0.67838166     1.5723254      188.82163      107.65768      182.0861      -226.69839      164.5371       124.95562     -18.527284      185.06296      205.36881      3701464.3    
   2111000   300.38946      0.89540176     0.67938143     1.5747832      188.79196      107.70162      182.13491      256.73144      20.283749     -13.527475     -50.598205     -4.1485573      241.8334       3703385.6    
   2112000   299.34372      0.8922846      0.67997389     1.5722585      188.71372      107.69139      182.07038     -252.32124      51.128504     -100.57012      101.98874     -60.820325      227.35786      3700187.6    
   2113000   299.65674      0.89321767     0.678958       1.5721757      188.70856      107.68495      182.03803     -263.15762      38.43659       30.418077     -49.235545      106.43254      303.42295      3699207.9    
   2114000   299.8285       0.89372966     0.68164851     1.5753782      188.72662      107.65078      182.12324     -90.506873      29.40953      -193.07944     -46.040457     -94.401785      238.68973      3700118.9    
   2115000   299.7499       0.89349535     0.67891045     1.5724058      188.7904       107.62109      182.11376     -456.87773     -228.55718      0.1220743      43.870293      13.456928      180.32338      3700156.2    
   2116000   300.52111      0.89579418     0.6797544      1.5755486      188.70452      107.66174      182.03682     -77.331024     -304.98454      237.52564     -35.783851      15.265572      150.65886      3698306.8    
   2117000   299.16469      0.89175098     0.68013056     1.5718815      188.77485      107.7278       182.09044      204.95499     -8.7442553     -144.94504      204.49543     -8.2744636      237.19719      3703045.7    
   2118000   300.6651       0.8962234      0.67862104     1.5748444      188.6905       107.69195      182.14531      112.11266     -332.40727     -61.664809     -283.37828      38.004733      203.08276      3701274.2    
   2119000   300.63923      0.89614629     0.68082179     1.5769681      188.72491      107.69053      182.07578     -51.012125     -131.03837      41.302443      60.740532     -60.702173      280.65739      3700487.3    
   2120000   300.00512      0.89425611     0.67784394     1.5721001      188.79052      107.62346      182.06805     -30.09206      -150.28806     -113.95385     -51.257205      48.639694      145.76975      3699311.1    
   2121000   300.49599      0.89571931     0.67995395     1.5756733      188.76126      107.63311      182.15312     -144.87858     -155.16911      52.668439      190.49392      66.269665      270.54759      3700798      
   2122000   299.86947      0.89385179     0.68078095     1.5746327      188.7517       107.63985      182.15368     -8.9502052      129.77243     -44.174139     -126.3294      -52.042188      290.26798      3700853.8    
   2123000   299.38547      0.89240907     0.68050995     1.572919       188.82878      107.65218      182.05792     -47.733035      101.6905      -47.258701     -162.43086      68.895127      203.379        3700842.2    
   2124000   299.7478       0.89348909     0.6801696      1.5736587      188.71832      107.72518      182.12024      21.170826     -89.888111     -130.98122      5.927447      -133.95441      182.39153      3702452.6    
   2125000   300.37052      0.8953453      0.6795577      1.574903       188.71329      107.67566      182.02906      260.47795      165.72918      365.92538     -29.940574      61.338947      80.036955      3698799.1    
   2126000   300.1441       0.89467038     0.67958488     1.5742553      188.66708      107.68226      182.03016      44.963702     -16.318236      35.506065      53.432395     -0.33163592     332.69959      3698142.6    
   2127000   299.98507      0.89419635     0.67885738     1.5730537      188.87763      107.67311      182.25609     -66.81688      -24.991421     -87.122493     -90.025918     -80.877866      202.50975      3706549.7    
   2128000   300.41664      0.89548279     0.6805902      1.576073       188.79288      107.66288      182.12681     -187.35726     -6.5003345      180.9182       121.75016      190.77892      159.22246      3701906.7    
   2129000   300.42794      0.89551646     0.67815926     1.5736757      188.73757      107.62974      181.95515      76.894262     -115.43351     -31.944443      110.23699      2.7293229      151.96799      3696196.2    
   2130000   300.16923      0.8947453      0.67771622     1.5724615      188.74666      107.66247      182.10981      10.772335      121.98399     -2.584105       236.42479      60.507683      83.132383      3700641.1    
   2131000   300.2869       0.89509604     0.67926604     1.5743621      188.73611      107.6603       182.08983     -40.481913     -186.55519      64.576332      110.92498     -89.443724      241.85004      3699953.5    
   2132000   300.09988      0.89453857     0.67998989     1.5745285      188.76961      107.68782      181.9792       121.30442     -98.202879      37.411443      302.19578     -118.50142      93.431958      3699307.4    
   2133000   300.10531      0.89455476     0.67725073     1.5718055      188.64878      107.65825      182.06326      55.201106     -19.801126     -55.058388     -58.254876      73.930076      212.30986      3697631.4    
   2134000   299.42141      0.89251618     0.67901513     1.5715313      188.6671       107.63511      182.11985      245.85279      285.25893     -212.36527     -209.86294      71.459268      275.52902      3698345      
   2135000   300.50162      0.89573608     0.68016561     1.5759017      188.78143      107.64957      182.08522      170.39948     -187.25671     -91.37036      -224.01365      17.762991      134.97142      3700379.6    
   2136000   300.4557       0.8955992      0.6796018      1.575201       188.76847      107.59567      182.12757      84.875123     -97.976605     -20.4762        181.75976     -36.361329      256.16327      3699133      
   2137000   299.52964      0.89283882     0.6790564      1.5718952      188.80365      107.63024      182.16076     -181.38006      116.38497     -55.691632      82.622968      121.22921      209.34316      3701685.5    
   2138000   300.17853      0.89477301     0.68222712     1.5770001      188.77491      107.65184      182.0297      -233.97173     -68.044224     -230.94093     -38.673896      45.742883      146.99667      3699201.5    
   2139000   299.50701      0.89277135     0.67852299     1.5712943      188.73119      107.65217      182.11833      291.18634     -66.175124     -96.687342      140.95296      44.598384      223.54906      3700156.9    
   2140000   299.8202       0.89370491     0.68046004     1.5741649      188.71406      107.62432      182.16951     -153.462       -82.762431     -123.79292     -110.50633     -72.117564      183.42692      3699903.3    
   2141000   299.98885      0.89420761     0.67842884     1.5726365      188.73328      107.66459      182.06742     -86.278027     -138.71378     -78.83558       150.9022       65.429608      184.2601       3699590.3    
   2142000   300.45592      0.89559986     0.6805176      1.5761175      188.71312      107.67482      181.91931      118.2168       148.97433      258.57853     -39.499171      24.950905      88.397021      3696536.8    
   2143000   299.96384      0.89413307     0.67864732     1.5727804      188.71402      107.64739      182.1098      -125.64563     -239.1159       50.509083      88.482666      29.17658       72.976645      3699482.3    
   2144000   300.21475      0.89488098     0.67859531     1.5734763      188.71903      107.63219      182.08943      272.71323      326.65838     -56.464631     -86.536782      91.638749      116.56225      3698644.6    
   2145000   300.6675       0.89623056     0.67877574     1.5750063      188.79632      107.64845      182.06502     -24.716619     -380.42918     -53.961587      34.55497       174.46374      32.333515      3700222.6    
   2146000   300.51466      0.89577496     0.67768749     1.5734624      188.70085      107.62586      181.87104      146.82799      171.18738      193.7577       22.816688     -41.749012      150.62963      3693635.7    
   2147000   299.65654      0.89321706     0.67831339     1.5715304      188.69367      107.64935      182.04135      258.36118      88.039062     -30.343068     -48.469652     -170.94113      219.16099      3697760.5    
   2148000   300.02313      0.89430981     0.68056541     1.5748752      188.80893      107.65202      182.10392     -276.01282     -146.17212     -141.17555     -160.18872      92.647371      53.7555        3701382.9    
   2149000   299.73661      0.89345575     0.68030279     1.5737585      188.70683      107.65209      182.12281      225.65896      366.74425      314.31519     -146.44584     -42.793956      81.258507      3699767.5    
   2150000   300.12291      0.89460723     0.67874599     1.5733532      188.84923      107.6281       181.92361      29.108256     -109.86762      217.99861      7.1870418      68.459231      12.756658      3697685.3    
   2151000   300.09128      0.89451293     0.6800697      1.5745826      188.76482      107.68722      182.05144      148.60584      39.167415      69.673322     -68.17191       72.668599      190.98825      3700661.3    
   2152000   300.69768      0.89632052     0.6790637      1.5753842      188.75219      107.67136      182.03392     -105.59874     -55.691589     -77.286005     -14.664194      81.91464       299.61674      3699512.5    
   2153000   299.79807      0.89363894     0.67915492     1.5727939      188.75607      107.64015      182.00858     -352.93267     -42.852986     -202.42971      18.02442       2.2994319      100.38714      3698001.5    
   2154000   300.33449      0.8952379      0.678666       1.5739039      188.6744       107.61417      182.09383      131.41262     -1.6970933      41.574485      35.614527     -9.8686426      115.3177       3697240      
   2155000   300.31578      0.89518215     0.68079585     1.575978       188.81441      107.61352      181.97371      44.437568      77.630042      115.66347      8.3950502     -6.2477454      125.84295      3697520.5    
   2156000   300.66825      0.89623278     0.677692       1.5739248      188.71645      107.6356       181.97345      106.55651      83.742412     -93.375195     -80.941818      92.978732      64.390771      3696355.2    
   2157000   300.11593      0.89458641     0.67854345     1.5731299      188.65054      107.67065      182.08254     -213.4563       193.90217      16.245407      63.547211      47.250194      171.42392      3698483.7    
   2158000   300.12762      0.89462128     0.67753049     1.5721518      188.70332      107.63543      182.05257     -118.64877      107.15219      71.093668      100.73939      79.593114      33.915889      3697699.2    
   2159000   300.2707       0.89504776     0.67761656     1.5726643      188.67606      107.65343      181.96103      170.54898      150.69384      187.97273     -54.797838      79.935685      255.06872      3695924.2    
   2160000   300.11294      0.8945775      0.67812615     1.5727037      188.70636      107.62162      181.99041      19.046588      69.513102      129.72803     -57.269498      142.90504      192.28452      3696022.1    
   2161000   299.92734      0.89402429     0.6772856      1.5713099      188.74757      107.63891      181.99558     -110.32216      20.701374      42.12124      -51.53522       133.27519      257.34532      3697528.1    
   2162000   299.57715      0.89298043     0.67980396     1.5727844      188.86846      107.65577      182.0514      -66.578592      62.327012     -16.12973      -195.77991      46.786094      261.28543      3701611      
   2163000   299.88254      0.89389074     0.6794605      1.5733512      188.66374      107.62354      182.08459     -139.78062     -122.63262      69.601708      5.5337434     -31.005195      191.25151      3697165.6    
   2164000   300.1171       0.89458992     0.67733385     1.5719238      188.70848      107.59916      182.00901      242.0614       311.72943      4.7737146      42.715636     -128.08029      158.69659      3695669.9    
   2165000   299.73753      0.89345849     0.67879249     1.572251       188.81025      107.6224       181.92215     -113.40618     -238.96365      82.920995      4.6149488     -28.299525     -0.85363592     3696696.6    
   2166000   299.58704      0.89300992     0.6787286      1.5717385      188.78633      107.58858      182.09856      19.633264     -30.921787     -153.69493     -186.53895     -119.73721      36.166993      3698649.7    
   2167000   300.70133      0.89633138     0.67879626     1.5751276      188.73224      107.62062      182.07097      100.12058     -72.468008      215.9533      -33.938658      65.457239      118.43575      3698131      
   2168000   299.87363      0.89386417     0.67805648     1.5719207      188.74145      107.67092      182.06349      60.964878     -242.26824     -204.73437      189.35223      45.46115       241.92241      3699888      
   2169000   299.73648      0.89345537     0.67851987     1.5719752      188.72346      107.62721      181.93084      43.018607      150.90187      162.25101     -75.470302      135.00026      94.266033      3695339      
   2170000   300.5878       0.89599297     0.67768994     1.5736829      188.77802      107.62505      181.96086      26.455931     -216.73326     -18.881661      102.9665       94.294633      149.30194      3696942.9    
   2171000   299.7128       0.89338478     0.6796471      1.5730319      188.78177      107.63893      182.03704      76.347896     -286.7784      -92.198773     -72.430958     -38.1313        155.09544      3699041.3    
   2172000   300.33776      0.89524764     0.67863864     1.5738863      188.72115      107.59117      182.09075      375.86135     -60.679979     -63.454702      48.442292     -40.513361      132.52783      3697303.3    
   2173000   300.22813      0.89492086     0.6780784      1.5729993      188.7209       107.55933      181.96711      103.29008     -79.920104     -55.890652     -82.110032      54.195394      219.5587       3693694.5    
   2174000   299.97616      0.89416981     0.67698062     1.5711504      188.73966      107.63741      182.01239     -116.51968      108.1058      -67.480995     -47.041564      71.697053      198.12961      3697663.3    
   2175000   299.89774      0.89393605     0.67687912     1.5708152      188.82217      107.60739      181.96112      42.569233      118.50753      47.955994     -84.052307     -85.557143      130.79957      3697206.4    
   2176000   299.77465      0.89356913     0.68001987     1.573589       188.82911      107.59015      182.07376     -83.877735      206.63772      66.065208     -216.33572      91.01223       160.05232      3699038.3    
   2177000   299.84881      0.89379019     0.67556271     1.5693529      188.76275      107.62183      182.06041     -134.88613     -319.27606     -19.993879     -131.21255     -29.33504       61.8709        3698555.9    
   2178000   299.60985      0.89307791     0.68100777     1.5740857      188.70041      107.61761      182.0721       113.87846      29.253607      38.545025      39.582658      8.5278783      43.633138      3697426.9    
   2179000   299.623        0.89311708     0.67705771     1.5701748      188.76544      107.65675      182.01446     -24.853094      113.74721     -133.4866      -22.395418     -54.631034      116.8072       3698874.7    
   2180000   300.49154      0.89570605     0.67882312     1.5745292      188.71132      107.64744      182.03645      36.757971     -244.84298      208.18825     -194.73335     -72.725605      135.83403      3697941.3    
   2181000   300.48138      0.89567575     0.67770049     1.5733762      188.719        107.59104      182.04874      180.0841       131.79311      207.13989     -20.103528     -59.198078      270.70478      3696403.7    
   2182000   299.90288      0.89395138     0.6776361      1.5715875      188.76104      107.58571      182.01747     -61.36167      -9.5443463     -46.0123        8.3183865      53.834308      100.95996      3696409.1    
   2183000   300.1736       0.89475832     0.67991436     1.5746727      188.70291      107.65553      182.08843      248.88895      12.083554      177.07608     -111.81784      45.058229      267.56451      3699110.4    
   2184000   299.84776      0.89378706     0.67934287     1.5731299      188.64968      107.68608      182.02601      256.13618      125.18309      391.64303      33.284653      62.904319      67.16946       3697848.3    
   2185000   299.9546       0.89410553     0.68113512     1.5752406      188.80493      107.65369      182.04209     -247.19625      187.78897     -122.34479      48.570899      67.305665      100.83009      3700105.2    
   2186000   300.07704      0.89447051     0.67774331     1.5722138      188.7626       107.64821      181.95122      87.445917      100.99648      148.06805     -37.266719      2.877722       102.79837      3697240.8    
   2187000   300.41412      0.89547528     0.68054649     1.5760218      188.87748      107.66144      182.07493      131.4869      -272.16276     -138.25754      88.862885      270.52966      202.09325      3702461      
   2188000   300.07555      0.89446605     0.67798195     1.572448       188.81764      107.60564      182.0115      -223.40643     -216.09739     -215.34584      2.8743192      102.91455      11.648285      3698081      
   2189000   299.87432      0.89386622     0.67741569     1.5712819      188.81423      107.5651       182.01786      46.549411      27.853061      26.557849      147.02971     -40.130603      194.40902      3696750.1    
   2190000   299.92877      0.89402852     0.68066401     1.5746925      188.75021      107.64281      182.05226      66.926022     -15.5632       -158.56504     -13.160157      86.010672      117.72201      3698865.5    
   2191000   300.58123      0.89597338     0.68026522     1.5762386      188.63808      107.62816      182.12501     -208.65164     -89.664316     -215.48911      51.939932      19.609558      215.80723      3697641.9    
   2192000   300.14545      0.89467443     0.67765836     1.5723328      188.72647      107.61801      182.03907     -313.44062     -58.544368     -78.961461     -161.40088      116.90356      111.9467       3697280.3    
   2193000   299.15797      0.89173093     0.67860485     1.5703358      188.75124      107.61482      181.95555     -169.77153      11.142737     -160.57558     -132.47436     -24.773551      180.23708      3695959.2    
   2194000   300.45862      0.89560792     0.67577759     1.5713855      188.71356      107.58182      181.95432      217.20161      396.74288     -183.30058      192.83828      47.805923      218.01328      3694063.4    
   2195000   300.22719      0.89491808     0.6783991      1.5733172      188.65881      107.62011      182.11099      110.56175     -76.964686     -41.706183     -138.25417      115.17163      111.68955      3697487.1    
   2196000   299.84814      0.89378818     0.67825283     1.572041       188.67376      107.6563       181.9275       154.09034     -242.04967      206.0945       50.687591     -158.95367      78.563442      3695296.7    
   2197000   300.42968      0.89552165     0.67736148     1.5728831      188.70477      107.60099      182.04674      479.1234      -218.87416      9.6330701      179.49294      15.075998      257.18691      3696426.3    
   2198000   300.60165      0.89603427     0.67728512     1.5733194      188.85085      107.58967      182.08788      169.42894      271.53374     -74.612212     -82.410746     -40.06482       137.17296      3699734.6    
   2199000   300.19831      0.89483198     0.67994828     1.5747803      188.78788      107.65458      181.95696      40.386288      29.822217      12.513429      112.36194     -40.175026      137.71723      3698071.3    
   2200000   300.24921      0.8949837      0.6790358      1.5740195      188.73351      107.65699      182.06302      51.944788      454.47705      32.848966      79.938857      68.349862      150.3076       3699244.2    
   2201000   299.32398      0.89222579     0.68006277     1.5722886      188.80875      107.62111      182.07577     -328.72003     -53.064804     -297.66763      29.672971     -3.6142278      124.28846      3699744.5    
   2202000   299.53433      0.89285278     0.67850846     1.5713612      188.67207      107.64521      182.05178     -266.88554     -116.42396     -120.34106     -184.01967     -61.774888      98.374085      3697406.9    
   2203000   299.22532      0.8919317      0.68045027     1.572382       188.70541      107.64225      181.8789      -132.47787      90.308192      103.20896     -117.12679      120.6733       114.32687      3694446.9    
   2204000   299.57121      0.89296271     0.67785921     1.5708219      188.7019       107.6122       182.02338      20.210956      183.49879      100.05239     -194.21481     -11.858763      264.75305      3696280.7    
   2205000   300.54224      0.89585716     0.67817003     1.5740272      188.80823      107.64016      182.09974     -407.64816     -383.58584     -148.94749     -71.780984      136.914        191.66399      3700876.4    
   2206000   299.74232      0.89347277     0.67669769     1.5701705      188.68808      107.64151      181.96078     -8.6532228     -395.28235      9.3701151      12.964371     -5.8635251      270.43354      3695745.3    
   2207000   300.15114      0.89469138     0.67859292     1.5732843      188.74485      107.65307      182.01678     -262.3504      -8.9403466      97.768425      97.099057      98.240934      82.581749      3698392.2    
   2208000   300.64426      0.89616126     0.67862554     1.5747868      188.74666      107.63872      182.08013     -27.380466      408.19187     -287.34333     -153.93076     -86.934955      106.01577      3699221.6    
   2209000   300.29322      0.8951149      0.67675824     1.5718731      188.68233      107.67563      182.04113     -11.651411      149.82741     -76.681457      11.501264     -18.014354      213.6435       3698436.6    
   2210000   300.27169      0.89505072     0.67784773     1.5728984      188.7436       107.63213      181.9336      -5.3199924     -196.52967      12.200289     -15.725865      55.292013      157.92222      3695958.4    
   2211000   299.77299      0.89356418     0.67705524     1.5706194      188.66754      107.63082      182.02059      2.7960186     -132.7695      -17.290731     -144.9623      -72.404439      148.33764      3696190.6    
   2212000   300.32976      0.8952238      0.67758578     1.5728096      188.70436      107.62827      182.08409      62.869987      182.43775      171.24997     -66.150834      179.47575      305.8372       3698114.2    
   2213000   299.49446      0.89273394     0.67927023     1.5720042      188.70025      107.65887      182.10325      36.494584      227.95558     -95.588769     -57.238994     -62.655734      166.24274      3699473.9    
   2214000   300.43979      0.89555179     0.67976526     1.575317       188.78667      107.63153      182.02594      56.515998      298.8161       43.14207       130.41742      131.72509      30.117335      3698657.6    
   2215000   300.12001      0.89459857     0.67749977     1.5720983      188.64259      107.68978      181.97282      257.14953     -33.082876      193.63064      19.03009       35.828451      122.45991      3696755.9    
   2216000   299.52907      0.8928371      0.67771353     1.5705506      188.7488       107.64791      182.03616      162.21524     -296.65744      30.028799      24.779584      25.625953      66.81481       3698686      
   2217000   300.12185      0.89460408     0.67760974     1.5722138      188.74762      107.60724      182.01335      117.28688      119.84819      15.853916     -33.666423      95.147382      17.062688      3696802.5    
   2218000   299.75913      0.89352289     0.67673515     1.570258       188.74889      107.59471      182.0923      -543.52416     -115.27048      46.051826      69.152965     -69.106476      145.09618      3698000      
   2219000   300.45351      0.89559267     0.67744258     1.5730353      188.68087      107.6158       181.96752      313.81837     -61.384716      143.85248     -3.9907553      53.927434      70.432845      3694858.2    
   2220000   300.30749      0.89515741     0.67938395     1.5745414      188.81882      107.62959      181.88152      332.99506      98.351521      298.52101     -17.373639      4.0069589      101.91476      3696285.6    
   2221000   300.50741      0.89575335     0.67968695     1.5754403      188.71486      107.63369      182.06798     -244.61583     -91.031183      139.27941      58.722849      29.33864       87.479817      3698178.6    
   2222000   299.78207      0.89359127     0.67803519     1.5716265      188.7627       107.59954      182.04871     -202.17208     -115.72029     -180.06954      163.25075      11.508187      164.96618      3697551      
   2223000   299.3861       0.89241096     0.67864752     1.5710585      188.80202      107.65532      181.96662     -125.02524      56.561489     -50.7416        198.89466      17.614314      160.20155      3698570.1    
   2224000   300.14507      0.89467328     0.67857542     1.5732487      188.66375      107.69312      182.1368      -199.06574     -258.01819     -72.099306      108.93732      98.949146      165.99388      3700616.6    
   2225000   299.51625      0.89279889     0.67952765     1.5723265      188.74039      107.61578      182.00831      59.158457      100.77976      92.186404      73.881617      90.340461      224.82379      3696851.6    
   2226000   299.73593      0.89345372     0.67985098     1.5733047      188.73513      107.5858       182.12176      125.10909      23.775185     -259.4636      -30.533892     -8.1331664      186.9507       3698022.4    
   2227000   300.23845      0.89495164     0.68018499     1.5751366      188.72931      107.64466      182.0668       74.325247     -5.0908222      155.51576     -188.59783      30.912146      139.47623      3698815.2    
   2228000   299.40638      0.8924714      0.68028497     1.5727564      188.69081      107.62008      182.07397      250.47063      58.340202      196.15801      53.687437      106.59449      197.17587      3697361.5    
   2229000   300.66094      0.89621098     0.67796446     1.5741754      188.77501      107.6562       181.97664      159.87572     -19.828482      22.41136      -30.529747      118.73617      205.14331      3698275.2    
   2230000   300.40033      0.89543417     0.67681866     1.5722528      188.65406      107.65369      182.04807     -100.45985     -127.75443      11.055344      36.198373      102.61722      148.8191       3697270.1    
   2231000   300.16414      0.89473012     0.67772464     1.5724548      188.75669      107.67489      182.0575       124.97641      26.389145     -38.740138      83.426125      101.09814      16.760643      3700201.2    
   2232000   300.45986      0.89561161     0.67988073     1.5754923      188.74024      107.6162       182.12945     -67.098437     -209.89697     -55.125909     -36.868867      3.1996631      201.36873      3699323.3    
   2233000   300.23723      0.89494798     0.6781686      1.5731166      188.70316      107.62164      181.98371      144.46119     -133.7801       42.025665      27.503396      4.2401735      169.6818       3695824.1    
   2234000   299.89029      0.89391383     0.6781914      1.5721052      188.67715      107.65993      182.01796      225.67974      299.55194      239.96069     -50.240037     -40.172979      259.20578      3697325.1    
   2235000   300.81037      0.89665641     0.6783574      1.5750138      188.73887      107.63266      182.14654     -95.449085      62.952334     -116.08022     -58.436888      53.005984      121.13612      3700209.8    
   2236000   300.3913       0.89540726     0.67798282     1.5733901      188.71269      107.65221      182.06693     -330.67826     -97.586394      17.844357     -11.762738      12.033277      196.93543      3698751.1    
   2237000   300.18354      0.89478795     0.67991399     1.5747019      188.70251      107.66817      182.00168      41.75203      -89.329714      73.043941      99.034156      55.859758      244.14884      3697774.3    
   2238000   299.56559      0.89294597     0.67642274     1.5693687      188.73804      107.63493      182.04709      146.9018      -9.5572087     -114.43604      49.365149     -78.088699      208.80232      3698251.3    
   2239000   300.40311      0.89544246     0.67960908     1.5750515      188.76238      107.63841      182.0876      -13.950226      410.65028      217.31853     -56.253875     -48.926896      147.78359      3699670.9    
   2240000   300.30023      0.89513579     0.67802668     1.5731625      188.75287      107.63333      181.94817      242.76482      229.09226      102.93647     -204.67815      189.76294      52.644781      3696477      
   2241000   299.94623      0.89408058     0.67700099     1.5710816      188.75985      107.61695      182.00574      94.309056     -74.418753      126.00539      17.783321      189.44155      225.9882       3697221      
   2242000   299.49904      0.89274761     0.67573883     1.5684864      188.70589      107.60698      182.05285      240.9342      -125.27815      106.13811     -10.503138      18.836855      171.26479      3696778.1    
   2243000   300.3879       0.8953971      0.67786348     1.5732606      188.72031      107.65287      182.10726      96.490703      67.457371     -130.94863     -12.792101      25.734903      67.728013      3699742.5    
   2244000   300.62693      0.89610961     0.67847415     1.5745838      188.76343      107.67427      182.01974     -78.821514     -306.82563      6.2359708      146.15224     -2.9462156      189.57609      3699544.6    
   2245000   299.55291      0.89290817     0.67921084     1.572119       188.72843      107.6889       182.02266      204.06679     -402.71357     -146.31723      177.12428      85.244234      131.79033      3699420.7    
   2246000   300.09783      0.89453246     0.67808698     1.5726194      188.65717      107.69015      181.97897      244.94384     -17.475575      37.072617      168.40614     -55.802994      234.85596      3697179.2    
   2247000   300.22286      0.89490516     0.67688773     1.5717929      188.71455      107.63401      182.03433      110.71071     -117.13054      83.095412     -89.337139     -55.039931      243.04509      3697500.4    
   2248000   299.87201      0.89385936     0.67934687     1.5732062      188.75858      107.64134      181.9759       72.009144     -353.76919     -31.700113      54.386722      95.290932      134.46022      3697427.5    
   2249000   300.38785      0.89539697     0.67907647     1.5744734      188.65336      107.64892      182.03075      77.066776      231.58209     -41.71657       218.22544      51.969591      171.20423      3696740.6    
   2250000   299.75286      0.8935042      0.6786353      1.5721395      188.73013      107.61247      182.01688      65.361534     -43.238464      198.64899      26.040438     -62.411317      241.17852      3696711      
   2251000   300.20658      0.89485664     0.67705892     1.5719156      188.76398      107.58425      182.07251      150.64066      421.30305      42.395761     -29.387685      80.710152      52.936086      3697534.1    
   2252000   299.95989      0.89412129     0.67675504     1.5708763      188.87462      107.65843      182.07276     -122.84736     -173.31153     -153.85008      23.517858     -62.91457       126.867        3702257.5    
   2253000   299.93914      0.89405945     0.67819371     1.5722532      188.77782      107.61977      182.02498     -77.320295     -87.655788      18.045536      50.141991     -17.567337     -65.384628      3698060.4    
   2254000   300.01004      0.89427078     0.67954635     1.5738171      188.72067      107.5789       182.10434      59.896737     -185.1737      -106.45983      115.32471      111.80577      165.03414      3697148.3    
   2255000   299.57959      0.89298769     0.67795205     1.5709397      188.79697      107.62027      182.02495     -127.3822       113.22161      195.35207     -179.5185      -64.582901      37.061669      3698452.3    
   2256000   299.67967      0.89328601     0.67644708     1.5697331      188.66137      107.58772      181.93067      86.320415      137.71877     -94.943328     -15.326899      166.70645      188.99072      3692764.2    
   2257000   300.10809      0.89456305     0.67907624     1.5736393      188.75071      107.61724      182.01396     -128.36608     -93.691063      31.385685     -285.50156      15.310235      270.09433      3697218.7    
   2258000   299.34971      0.89230248     0.67854594     1.5708484      188.71743      107.59228      182.06223     -110.46151      270.00266     -191.50124      156.80267     -18.579828      163.05375      3696689.7    
   2259000   300.60061      0.89603116     0.6795179      1.5755491      188.74931      107.62061      182.09166      232.8656       419.72714      98.133296      108.52108      24.787822      289.86764      3698885.3    
   2260000   299.85018      0.89379427     0.67661963     1.5704139      188.74383      107.56674      182.01622      29.2597       -125.28109     -3.1765968     -80.44815       58.775693      91.539377      3695394.9    
   2261000   299.87493      0.89386804     0.67803112     1.5718992      188.79705      107.57394      182.0426       85.069918      101.08001     -81.54831       157.85402      73.069339      193.90146      3697220      
   2262000   300.40159      0.89543791     0.67633618     1.5717741      188.77935      107.60722      182.05036      76.310614     -149.54006     -124.33882     -58.483191      120.87437      186.2644       3698174.8    
   2263000   299.70867      0.89337245     0.67689655     1.570269       188.73125      107.58766      182.03637      194.3929       117.07081     -47.169022      195.21332      27.576163      10.74746       3696276.6    
   2264000   300.40518      0.89544863     0.6785009      1.5739495      188.77666      107.60403      181.92247      189.41407     -121.29625      262.94718     -38.01622       18.865542      110.94198      3695414.5    
   2265000   300.09115      0.89451255     0.67849356     1.5730061      188.69159      107.60543      181.93861      129.12301      314.96262      54.877189     -49.142057     -121.97261      202.91666      3694125.2    
   2266000   300.03361      0.89434104     0.67982963     1.5741707      188.76352      107.63305      182.08573     -8.3846546     -71.490142     -266.20261     -22.906365      51.963424      121.20189      3699471      
   2267000   299.52567      0.89282698     0.67804756     1.5708745      188.77471      107.56092      182.06137      43.090851      309.24138      51.661385     -184.88444      90.864865      244.42796      3696716.3    
   2268000   300.26761      0.89503856     0.67649723     1.5715358      188.72868      107.60211      182.01169     -162.57125      420.4469      -78.858298      125.77048      119.28754      107.60568      3696221.5    
   2269000   299.73821      0.89346053     0.67864034     1.5721009      188.70931      107.60776      182.01673     -57.424035     -24.961292     -11.424214     -52.200337     -54.70644       98.805325      3696138.7    
   2270000   301.07222      0.89743694     0.67873579     1.5761727      188.76937      107.60288      182.04025      45.519054     -69.057927     -8.1518897     -111.91805     -15.294589      57.969791      3697624.8    
   2271000   300.18445      0.89479066     0.67758619     1.5723768      188.86013      107.59158      182.02337      56.136044      281.70046      35.348758      87.519073      42.719713      73.682914      3698671.3    
   2272000   300.43033      0.89552359     0.67746672     1.5729903      188.86262      107.58796      182.04299     -275.10959      210.37234     -55.129052     -40.496067      83.068932      159.89595      3698994.2    
   2273000   300.23125      0.89493017     0.67887794     1.5738081      188.77067      107.60929      182.05719     -5.7841005     -89.054396     -72.718081     -41.512031      137.18144      33.091625      3698214.7    
   2274000   299.83002      0.89373419     0.67764279     1.571377       188.7254       107.61358      182.09498      81.621461     -96.151255      140.21987     -94.658338      151.11629      140.58147      3698242.7    
   2275000   299.89745      0.89393519     0.67818581     1.572121       188.72529      107.63612      182.0437       374.3117      -20.538688      32.093817     -44.762473      70.886661      41.334101      3697973.7    
   2276000   300.05629      0.89440865     0.67674262     1.5711513      188.81414      107.55349      182.0452      -279.98155     -56.617632      26.349125      40.507273      68.248728      247.81624      3696904.7    
   2277000   299.86917      0.89385089     0.67552583     1.5693767      188.6696       107.59055      182.11173     -119.3453      -197.19581      103.99849     -128.31276      134.06261      76.122473      3696698.1    
   2278000   300.41572      0.89548004     0.67913106     1.5746111      188.79311      107.63724      182.01706     -174.22155      388.55521     -82.800045      113.91223     -7.1575352     -3.6082672      3698799.6    
   2279000   300.1998       0.89483641     0.67810445     1.5729409      188.67587      107.6053       181.99502      139.02519     -110.66295     -104.03692     -97.25919       97.742781      165.45514      3694958.4    
   2280000   300.39901      0.89543022     0.67923052     1.5746607      188.7739       107.61072      182.01119      238.32573     -50.756004      288.74886     -35.268         22.985927      203.9271       3697392.5    
   2281000   300.63706      0.89613982     0.68033689     1.5764767      188.69779      107.62496      181.95275      220.43385     -175.85465      78.324346      41.963549      112.86477      39.152475      3695204.3    
   2282000   299.99102      0.89421408     0.67832807     1.5725422      188.73482      107.62213      182.03929      114.55715     -181.68432      16.195691     -70.502864      71.183213      67.69033       3697589.8    
   2283000   299.8315       0.89373858     0.67971572     1.5734543      188.79336      107.65078      182.13268     -123.40144     -112.37197     -239.34575      36.965279      53.747048      172.56104      3701619.6    
   2284000   300.35612      0.89530238     0.67764544     1.5729478      188.8003       107.65032      182.02651     -82.064049     -132.64523     -25.816225     -68.68169       10.375941      180.5697       3699581.9    
   2285000   299.70766      0.89336945     0.67637452     1.569744       188.7509       107.64317      182.10692      161.36318     -98.484028      4.3692907      193.44426     -20.569942      182.78366      3700001.8    
   2286000   299.96997      0.89415136     0.67802454     1.5721759      188.76372      107.64069      182.12555     -28.422159     -137.10398      91.386893      107.33679      47.97514       287.458        3700546.4    
   2287000   300.33692      0.89524516     0.6778504      1.5730956      188.86809      107.58651      182.0332      -283.221        370.17526      79.366148     -32.455248      132.44435      360.26613      3698852.3    
   2288000   300.41158      0.8954677      0.67690363     1.5723713      188.74453      107.59475      181.95025      71.36866      -562.53989     -145.39656      228.69884      1.7656807      325.47051      3695031.3    
   2289000   299.92012      0.89400274     0.67899996     1.5730027      188.79614      107.61253      182.18599     -301.38562     -130.42214     -41.919761      28.510581     -13.844293      179.56333      3701442      
   2290000   300.07456      0.89446311     0.68019712     1.5746602      188.7426       107.65653      182.26107      177.29743     -264.85478     -162.20241     -126.8806       68.220401      207.7812       3703430.8    
   2291000   299.7024       0.89335377     0.67805457     1.5714083      188.77604      107.63174      182.01741      43.669113     -313.85281      64.071316      148.75982     -19.550376      301.96206      3698283      
   2292000   300.35846      0.89530935     0.67921565     1.574525       188.79616      107.62596      182.07172      91.844609      217.15229      272.07591      11.541956     -25.719375      101.39031      3699582.1    
   2293000   299.86699      0.89384437     0.679208       1.5730524      188.74772      107.64276      182.03889     -346.38607     -37.317296     -71.683189      122.2765       78.800715      143.99768      3698543.6    
   2294000   299.92373      0.89401353     0.67905024     1.5730638      188.83806      107.6428       182.02495     -70.35177       15.323727     -28.118901     -169.57852      80.666314      258.41975      3700031.5    
   2295000   299.65341      0.89320773     0.6797325      1.5729402      188.78723      107.64287      182.04779     -324.7328      -564.35714     -26.695251      117.32523      39.35995       86.323552      3699502.4    
   2296000   300.613        0.89606808     0.67892088     1.574989       188.74686      107.64373      182.05126      220.23582      197.79271      43.939643      103.94506      50.778891      353.37989      3698811.1    
   2297000   298.81569      0.89071065     0.67649317     1.5672038      188.71136      107.60066      181.9292      -276.15403      16.038668      46.36888      -43.905823      37.060895      113.22306      3694157.2    
   2298000   299.79976      0.89364399     0.67778631     1.5714303      188.77974      107.63561      182.11808      160.94271     -274.32235     -245.34853     -11.023285      0.31044149     165.87123      3700534.2    
   2299000   299.87174      0.89385855     0.67818003     1.5720386      188.75656      107.64172      182.04873     -80.423287     -75.276442      166.86287     -15.584363      67.560674      173.03906      3698880.8    
   2300000   300.18341      0.89478758     0.67983493     1.5746225      188.79531      107.67311      182.10446     -56.901686     -193.42617      110.33628     -165.33409      80.480782      210.39036      3701852      
   2301000   299.72313      0.89341556     0.6776384      1.571054       188.75099      107.65355      181.90306      115.37913      166.93758      154.06385      11.971275      145.05309      277.14705      3696218      
   2302000   299.88455      0.89389674     0.67828021     1.572177       188.72268      107.64787      182.0928       77.665611      473.34081      45.801351      141.77695      91.029484      59.151646      3699323.4    
   2303000   300.37643      0.89536292     0.67887811     1.574241       188.77386      107.60444      182.04993      293.66862      97.413452     -144.96064      51.992805      17.546555      121.67961      3697963      
   2304000   299.76704      0.89354646     0.67786124     1.5714077      188.79512      107.61968      181.98248     -167.94827      102.84795      75.01129      -64.264553     -45.114824      12.102647      3697532.9    
   2305000   300.69316      0.89630703     0.68005619     1.5763632      188.75863      107.63195      182.08683      305.70129     -185.70048      38.918461      30.354679      114.03358      221.93774      3699359.8    
   2306000   300.56968      0.89593895     0.6798877      1.5758266      188.75151      107.68735      182.11328      25.762768     -226.35761     -104.0539       48.299724      190.65298      61.335744      3701661.9    
   2307000   299.60361      0.89305929     0.68033177     1.5733911      188.77952      107.61736      182.14371     -62.131793      141.5002      -17.652509      84.523049      23.781626      209.06884      3700423.2    
   2308000   300.30905      0.89516209     0.68129614     1.5764582      188.84792      107.68858      182.04713      150.10869     -170.27527      47.812121      98.549473     -14.387842      181.5149       3702249.7    
   2309000   300.12603      0.89461652     0.67699955     1.5716161      188.69721      107.66225      182.13515      214.9345      -236.48997     -78.15756       59.759439      27.569986      164.55279      3700178.6    
   2310000   299.98373      0.89419235     0.68044382     1.5746362      188.81907      107.64837      182.09063      187.06546      359.79002      133.07867      161.97598      32.7649        315.68685      3701186      
   2311000   299.88412      0.89389546     0.67864308     1.5725385      188.78995      107.61388      182.0166       164.14702     -172.27551      161.41467     -48.639447      120.13103      224.40138      3697925.5    
   2312000   300.01512      0.89428593     0.67814179     1.5724277      188.72404      107.64259      182.04003     -33.296219     -90.628173     -131.51269     -118.28028     -29.181634      171.28772      3698096.6    
   2313000   299.28717      0.89211606     0.67926201     1.5713781      188.74264      107.62972      182.17146     -417.33072      95.034149     -148.72818     -285.7832       233.0317       132.84647      3700688.9    
   2314000   299.93538      0.89404824     0.67868667     1.5727349      188.73705      107.61855      182.08849      67.119332     -25.782058      5.7093863      130.78014      1.3126803      211.62792      3698510      
   2315000   299.56647      0.89294859     0.67738188     1.5703305      188.77452      107.57867      182.0609      -132.56845     -41.164632     -19.483347      60.697404      261.92594      90.538101      3697313      
   2316000   300.49601      0.89571938     0.6819762      1.5776956      188.80557      107.60752      182.1857      -52.100792      138.52241     -180.91512     -59.510895      25.289624      279.06463      3701448.5    
   2317000   299.5667       0.89294928     0.67921743     1.5721667      188.78493      107.59727      182.05992     -33.406894      253.78961      10.669175      1.6711439      72.941925      260.64069      3698136.5    
   2318000   299.53051      0.89284142     0.67785094     1.5706924      188.75873      107.60665      182.04959     -181.58266     -24.012683      13.952888     -250.81773     -87.758117      165.02606      3697735.4    
   2319000   299.86336      0.89383357     0.68015324     1.5739868      188.79173      107.59864      182.09866     -330.06336     -209.27141     -91.421399     -99.222513      126.38135      165.29016      3699103.7    
   2320000   300.36223      0.89532059     0.68076593     1.5760865      188.76669      107.60794      182.13672     -91.762592     -138.52609     -48.398274      202.15283      82.53235       232.77605      3699705.7    
   2321000   300.00008      0.89424111     0.68024233     1.5744834      188.77884      107.62965      182.08429     -30.99722      -335.05445      46.299601      39.841064      40.828795      76.635663      3699625.4    
   2322000   299.6531       0.89320681     0.67850972     1.5717165      188.84367      107.6367       182.03869     -153.60238     -211.1634      -112.00869      80.599173      158.71549      110.20285      3700211.1    
   2323000   300.06442      0.89443289     0.67997714     1.57441        188.83047      107.65751      182.11989      101.31993     -32.335079     -0.92866866    -116.05698      91.106313      253.15369      3702318.5    
   2324000   299.67451      0.89327063     0.67974229     1.5730129      188.72432      107.61718      182.12974     -36.21109       91.552739     -151.3404      -26.752614      26.37355       212.12956      3699051.1    
   2325000   300.07967      0.89447833     0.68020495     1.5746833      188.70648      107.653        182.0379       476.75993     -18.300462      11.754224     -123.54706     -77.037812      392.5067       3698067      
   2326000   300.26134      0.89501986     0.67927513     1.574295       188.78224      107.6268       182.05025     -393.1041      -440.7451      -9.3564343     -133.54691      69.059627      225.63018      3698902.1    
   2327000   299.25763      0.89202801     0.67762897     1.569657       188.70369      107.58808      182.01885     -303.79796      489.64953     -203.0155       61.11065       117.62562      294.80621      3695395.3    
   2328000   300.07623      0.8944681      0.67965441     1.5741225      188.67818      107.64546      182.01091     -85.097682      56.089417     -32.03865       108.4432       24.082534      261.14208      3696705.2    
   2329000   300.02614      0.89431878     0.67628704     1.5706058      188.69891      107.62311      182.05706      82.54121      -214.17728      30.863212      38.930505      13.730111      120.39781      3697280.8    
   2330000   300.65964      0.8962071      0.67790295     1.5741101      188.69415      107.59225      182.03575      192.11611     -36.388284      48.545752     -256.78518     -6.2897005      200.12223      3695694.7    
   2331000   300.5383       0.89584542     0.67793054     1.573776       188.78424      107.58995      182.18421      128.07008     -52.589082     -283.83478      40.668852      43.248789      171.75471      3700395.7    
   2332000   299.53035      0.89284093     0.68048486     1.5733258      188.81124      107.59592      182.13186      148.24518      151.70222      74.259599     -117.7003       88.914624      181.83737      3700067      
   2333000   300.13532      0.89464422     0.6774615      1.5721057      188.81934      107.61374      182.01691      41.232449     -136.44011     -92.338126      11.175228      22.009025      112.19838      3698502.9    
   2334000   300.04759      0.89438271     0.67875756     1.5731403      188.82368      107.62222      181.98398      12.146228      231.47702     -203.03894      94.881114      111.60551      272.49889      3698210.1    
   2335000   300.4577       0.89560517     0.67959986     1.575205       188.66059      107.61648      182.09051      110.18901      76.401823      8.7958856     -248.23411      111.1361       205.12472      3696981.4    
   2336000   299.41229      0.892489       0.67789972     1.5703887      188.69428      107.63651      182.05454      222.08602     -113.55815     -273.2566       47.030923     -118.00744      179.80092      3697599.2    
   2337000   299.85218      0.89380023     0.67852259     1.5723228      188.77295      107.63655      182.06857     -256.01809     -293.55487      0.54645092     81.967553      160.82637      67.156267      3699427.3    
   2338000   299.61549      0.89309472     0.68091762     1.5740123      188.79717      107.63745      182.15176     -91.713611     -126.91141     -225.5285      -145.55581      147.38973      119.82088      3701623.7    
   2339000   299.88621      0.89390168     0.67800135     1.571903       188.8337       107.5837       182.11129      152.44724     -391.56964     -272.54292     -28.329396      113.57417      185.42779      3699668.8    
   2340000   300.10798      0.89456271     0.67713581     1.5716985      188.74843      107.59757      181.98147     -223.88282      166.86559      68.409879      32.757993      188.82592      336.01655      3695838.3    
   2341000   300.2129       0.89487548     0.67766654     1.572542       188.77404      107.61147      181.96151     -273.20504     -127.71895      59.950028      59.523857      18.089855      239.75871      3696412.1    
   2342000   300.32607      0.8952128      0.67626435     1.5714771      188.69352      107.64577      182.02297      167.81342     -162.45185      78.975735     -177.22044      74.175893      295.67557      3697261.5    
   2343000   300.68475      0.89628195     0.6809633      1.5772453      188.77053      107.62912      182.06778      30.270702     -197.58185     -23.580623     -29.850461      121.68549      158.57634      3699108.6    
   2344000   300.37476      0.89535794     0.67820271     1.5735607      188.79147      107.63372      182.12939      321.19835      175.54227     -10.329299      251.21937      61.550028      174.23571      3700928.9    
   2345000   300.42146      0.89549716     0.67785811     1.5733553      188.71292      107.62742      181.93238      151.76438     -265.18481      85.090593     -111.83838     -78.51546       73.344835      3695171.2    
   2346000   299.77655      0.89357478     0.67754141     1.5711162      188.76083      107.59891      181.985       -169.30072      198.45331      105.8546      -209.14242     -26.840144      281.93322      3696199      
   2347000   300.45634      0.89560111     0.67804129     1.5736424      188.80633      107.61014      182.07095      144.16507     -166.40633     -102.49557     -22.247615      75.583713      240.61153      3699222.1    
   2348000   300.21288      0.8948754      0.67895618     1.5738316      188.69197      107.58608      181.91408     -178.42585      144.70457      71.254259     -10.330736      105.97945      234.35639      3692970.4    
   2349000   299.97657      0.894171       0.6790377      1.5732087      188.67166      107.63176      182.04783     -91.976365     -92.964791      60.944054      152.18185      86.045918     -42.811314      3696856.9    
   2350000   300.47326      0.89565156     0.67713183     1.5727834      188.81171      107.65463      182.0653       262.20643      174.12305      103.67303      11.360925      89.920027      207.2684       3700742      
   2351000   299.78883      0.89361139     0.67982531     1.5734367      188.82433      107.63858      182.09345     -104.84553     -169.19767      85.076125     -327.12202      209.55967      112.33625      3701009.8    
   2352000   300.06701      0.8944406      0.67936573     1.5738063      188.78329      107.60239      182.05138      137.47184      49.926044     -71.874274     -107.21827     -1.8268276      207.35978      3698106.9    
   2353000   300.19624      0.89482581     0.67629567     1.5711215      188.72788      107.64321      182.06568      262.44847      261.34817      32.148533      188.71419      213.98846      258.26006      3698714.3    
   2354000   300.78938      0.89659384     0.67531445     1.5719083      188.62545      107.6125       181.98486      38.794761      126.85219     -180.71821      164.01626      7.1870884      107.25185      3694011.6    
   2355000   300.1215       0.89460301     0.67846597     1.573069       188.72851      107.61944      182.08842      33.890903     -179.22917      16.875907     -31.660438      92.623938      69.782588      3698371.7    
   2356000   299.77885      0.89358165     0.67773613     1.5713178      188.81013      107.59978      182.09723     -294.49604      174.06844     -18.320521     -31.462202     -34.7603        47.899551      3699474.4    
   2357000   299.87346      0.89386367     0.6781753      1.572039       188.78672      107.54814      182.06903     -88.267503      283.84041      176.05389      181.84379      96.738922      237.89777      3696667.7    
   2358000   300.16585      0.89473522     0.67727087     1.5720061      188.79378      107.59309      182.15131      50.475706      8.6162485     -74.851309      68.260705      19.478598      199.53275      3700022.6    
   2359000   300.25274      0.89499422     0.67664428     1.5716385      188.78486      107.54635      182.01833     -131.53336      84.04244      -22.901712     -37.099637     -14.498749      127.75728      3695540.3    
   2360000   300.1236       0.89460929     0.67887311     1.5734824      188.71638      107.62083      181.98715     -28.513936     -62.184435      191.14609      69.92312      -5.3274142      269.2642       3696125.2    
   2361000   300.24775      0.89497935     0.67882564     1.573805       188.72481      107.57748      182.05515      8.7323467      262.45603     -58.306095     -24.104599      33.814461      228.32238      3696181.8    
   2362000   299.40437      0.89246542     0.67909282     1.5715582      188.80713      107.62081      182.11309      110.31165     -64.39412       12.320968     -32.84517       57.706995      132.55457      3700460.8    
   2363000   300.30163      0.89513996     0.67961924     1.5747592      188.7661       107.6238       182.09889      363.71242      285.39844     -71.236965     -30.451576     -43.331949      153.69985      3699471      
   2364000   300.8754       0.89685027     0.67668816     1.5735384      188.75692      107.64028      182.11047      2.5827897     -45.618756     -6.9763425      122.72693      75.380068      130.91554      3700093      
   2365000   300.46936      0.89563993     0.67650077     1.5721407      188.71154      107.63211      181.97639      457.90968     -111.47184     -59.708336     -191.31099      10.524965      310.08441      3696199.1    
   2366000   299.7045       0.89336004     0.67888558     1.5722456      188.70824      107.61752      182.16962      237.81689     -22.932997     -126.42069     -218.43918      88.229201      158.98362      3699557.6    
   2367000   299.07033      0.8914697      0.67964535     1.5711151      188.73522      107.64634      182.07961      167.53924     -119.66683     -53.186957      123.28579      42.320589      231.84953      3699248.5    
   2368000   299.53986      0.89286928     0.6776691      1.5705384      188.80969      107.59098      182.06651      91.574694      359.69662      262.99697      68.971277     -26.365708      119.52834      3698539.1    
   2369000   299.77623      0.89357385     0.67748154     1.5710554      188.81554      107.56279      182.09968     -35.256023      104.00939      76.060822     -57.819098      55.483632      287.78139      3698358.4    
   2370000   299.4689       0.89265775     0.67829638     1.5709541      188.81567      107.60026      182.13168      24.861388      96.523265     -325.9766      -195.79631     -80.12408       207.39878      3700299.3    
   2371000   299.90669      0.89396273     0.67925766     1.5732204      188.75218      107.58064      182.08841     -27.166201     -25.369249      265.64191      95.880074      11.296956     -0.43044328     3697501.7    
   2372000   299.43091      0.89254452     0.67902968     1.5715742      188.77945      107.61488      182.09516     -93.965288     -203.54052      107.42869     -163.73737      149.82517      135.26726      3699350      
   2373000   299.73181      0.89344143     0.67577184     1.5692133      188.67124      107.66176      181.94185      204.15663     -245.48873      178.51539     -65.172216     -34.264674      212.66221      3695726.3    
   2374000   299.77082      0.89355771     0.6782153      1.571773       188.67486      107.63655      182.06164      158.23448      42.909122      157.7997      -93.867724      75.886841      89.082303      3697364.5    
   2375000   299.62018      0.89310869     0.68017933     1.573288       188.76401      107.64204      182.13385     -12.335068     -196.94865     -66.170134      175.2566       73.297269      291.59711      3700767.4    
   2376000   300.09838      0.8945341      0.68102977     1.5755639      188.83958      107.62285      182.16574      52.022203      121.86955     -16.480507     -221.7027       62.408596      237.85398      3702237      
   2377000   299.93394      0.89404395     0.67658266     1.5706266      188.85143      107.60918      182.05157     -191.10578     -12.313048      92.197715      220.44737     -8.0217058      191.905        3699678.8    
   2378000   300.08345      0.8944896      0.67832819     1.5728178      188.79767      107.62438      182.09567      110.58233      148.90302     -6.0480341      126.89665      39.339337      215.48898      3700044.2    
   2379000   299.61871      0.89310431     0.6809813      1.5740856      188.82422      107.61345      182.08576     -129.30088      179.35497      101.27998      61.063717      67.101953      221.11456      3699987.2    
   2380000   299.29192      0.89213021     0.68100589     1.5731361      188.82294      107.56246      182.10043     -10.077429      213.63027      34.455593     -203.1622       226.84586      198.22248      3698507.2    
   2381000   299.94104      0.8940651      0.67949049     1.5735556      188.79154      107.61188      182.09218      11.39399       177.3076       12.447655     -241.52227      15.350327      225.95572      3699423.4    
   2382000   299.35672      0.89232338     0.67746169     1.5697851      188.69346      107.60434      182.19354      145.05828      174.32122     -80.089353      32.637367      78.161835      329.43442      3699300.6    
   2383000   300.0648       0.89443403     0.67903624     1.5734703      188.80153      107.64953      182.0447      -139.74032     -12.99447      -41.306474      220.90952      184.72718      157.19185      3699948.6    
   2384000   300.61176      0.8960644      0.67729251     1.5733569      188.74786      107.59198      182.03918     -146.56106      154.35039     -52.930929     -40.527841     -42.469312      304.15369      3696807.3    
   2385000   299.48615      0.89270917     0.68114803     1.5738572      188.77104      107.65145      182.15116      271.14473      27.234096     -7.3133152     -43.857648     -35.900254      201.32879      3701580.5    
   2386000   299.98977      0.89421037     0.67773275     1.5719431      188.69488      107.62264      182.01289      41.793729     -253.37996     -101.45537     -222.70339     -55.264882      223.16472      3696288.9    
   2387000   299.63733      0.8931598      0.67796297     1.5711228      188.7552       107.65287      182.08061      31.262837      280.63422      32.893982     -199.30635      118.67932      263.18022      3699885.1    
   2388000   300.21641      0.89488592     0.67782546     1.5727114      188.81223      107.68746      181.88294     -183.99935     -364.06459      138.40191      117.11373     -63.301898      199.3592       3698173.1    
   2389000   300.42141      0.89549701     0.67701441     1.5725114      188.78326      107.60284      182.03854      24.64724       62.973153     -60.717103     -72.852352      243.2071       128.02908      3697860.7    
   2390000   299.47903      0.89268796     0.67854818     1.5712361      188.72657      107.64407      182.07874      234.87122      126.0676       285.98353      210.14781      123.60803      238.45246      3698983.6    
   2391000   299.43136      0.89254587     0.67947092     1.5720168      188.71246      107.65772      182.21279     -70.096122      23.959944     -135.78411     -271.56196      155.12171      270.34927      3701899.4    
   2392000   299.58707      0.89301        0.67784603     1.570856       188.80549      107.62074      182.03788      227.97232      190.74751      57.68505      -112.09511      62.977246      180.78893      3698898.1    
   2393000   299.85287      0.8938023      0.67886422     1.5726665      188.84524      107.63117      182.11657      212.46422     -80.211895     -158.90992     -29.199561      53.940996      160.29502      3701634.8    
   2394000   300.6154       0.89607525     0.68134674     1.577422       188.75607      107.62579      182.1255       234.06349      160.07938      125.18177      64.485043      148.43189      334.52103      3699883.4    
   2395000   299.86532      0.89383942     0.68101729     1.5748567      188.80194      107.61434      182.08645     -86.911245     -219.15257     -344.92014      10.292887     -102.85636      298.16754      3699595.4    
   2396000   299.69816      0.89334113     0.67999761     1.5733387      188.79552      107.59557      182.18076      118.33929      210.96902     -343.57765      162.60952      54.735924      170.6977       3700740.2    
   2397000   300.43885      0.89554898     0.67816072     1.5737097      188.76902      107.58688      182.16396      277.09095     -3.3204484      20.951332     -136.93894      265.5347       230.85593      3699580.7    
   2398000   299.55649      0.89291883     0.67761333     1.5705322      188.73125      107.6067       182.00893      20.661505      163.96657      73.743464     -75.250016      18.252892      274.26536      3696373.3    
   2399000   300.2601       0.89501615     0.67723518     1.5722513      188.74999      107.65145      181.97145      44.015512     -197.61426      138.55082     -79.562264      91.971006      180.4466       3697516.4    
   2400000   299.34129      0.89227738     0.67861444     1.5708918      188.78696      107.62909      182.19138      375.89358     -225.06521      22.056424      97.8258        92.155536      229.25763      3701941.1    
   2401000   299.75341      0.89350581     0.67902325     1.5725291      188.76011      107.58412      182.06933     -36.454519      50.689327     -260.17937     -207.31886      43.893853      214.96564      3697389.5    
   2402000   299.79112      0.89361823     0.68144581     1.575064       188.77468      107.65367      182.1126       39.879239     -2.6034121     -85.752832     -23.26924      -24.776959      169.10301      3700944.5    
   2403000   299.9229       0.89401104     0.67990627     1.5739173      188.74457      107.61569      182.14013      125.66177     -76.564447     -33.485852     -110.91856      64.55842       266.35464      3699607.8    
   2404000   299.83056      0.8937358      0.67784341     1.5715792      188.80993      107.63159      182.07089     -11.256299     -176.93729     -19.373523      117.94534     -10.543968      246.58812      3700028.8    
   2405000   299.12742      0.89163986     0.67889527     1.5705351      188.66982      107.66007      182.12079      209.84605     -56.401212     -49.30337      -45.296392      74.713909      260.41545      3699275.2    
   2406000   300.26624      0.89503447     0.67818022     1.5732147      188.77292      107.638        182.17971     -147.43593     -155.38546     -318.14571      190.38971      104.95707      295.75201      3701734.7    
   2407000   299.43116      0.89254525     0.67817407     1.5707193      188.73187      107.65474      182.03932      36.780536      139.87142      145.99617      80.126421     -84.646271      151.89149      3698653.1    
   2408000   299.92555      0.89401893     0.679719       1.5737379      188.78599      107.61703      182.08966      52.807757      10.899811      135.32679      98.480648     -69.41289       294.67412      3699440.7    
   2409000   300.0436       0.89437082     0.67881181     1.5731826      188.77725      107.5999       182.04013     -183.44835     -103.83776     -22.573073     -188.87994      117.59099      288.7118       3697674.3    
   2410000   299.3794       0.89239097     0.67831837     1.5707093      188.69667      107.63542      182.16732      443.70938      342.01052      43.452302      68.482295      69.811243      285.70402      3699899.3    
   2411000   300.12391      0.8946102      0.68008084     1.574691       188.84511      107.65582      182.16201     -229.94118      192.22092     -40.254166      91.303316      71.14967       188.34803      3703403.8    
   2412000   299.61566      0.89309522     0.67953667     1.5726319      188.76087      107.62424      182.07752      216.85539     -8.7542287     -6.8258507     -148.11576      52.637497      153.1819       3698949.5    
   2413000   300.12798      0.89462236     0.67886673     1.5734891      188.72427      107.58576      182.14174      222.34127      155.51665      203.28797     -104.8299       56.637109      100.2335       3698214      
   2414000   300.80744      0.89664767     0.67829813     1.5749458      188.75571      107.62177      182.24247      173.08311      35.14574      -181.61096      160.37684      28.619518      153.53533      3702114.3    
   2415000   300.51476      0.89577526     0.67922506     1.5750003      188.80231      107.61576      182.14337      16.507929      69.913237      50.143037      149.60505      53.322143      108.04642      3700808      
   2416000   300.46868      0.8956379      0.67994825     1.5755861      188.75946      107.62779      182.0725       115.06973     -25.197781      128.06486      142.58641     -8.0969034      279.37911      3698941.8    
   2417000   300.25293      0.8949948      0.67938513     1.5743799      188.6775       107.70433      182.11257     -66.219787     -418.58228      114.73985     -88.146717      154.90203      174.18007      3700779.7    
   2418000   299.32273      0.89222205     0.67840199     1.570624       188.81915      107.65644      182.09031      56.421032      119.32159      62.194724     -298.55391     -5.6875727      173.0902       3701458.6    
   2419000   300.31331      0.89517478     0.67939689     1.5745717      188.74437      107.61966      182.07021      80.354922     -239.08768      16.583042      124.76176      37.005165      246.56517      3698320.2    
   2420000   300.0268       0.89432076     0.67907838     1.5733991      188.77007      107.67116      182.08895     -232.09896     -227.16885      103.19514      33.308239      1.0467851      163.15399      3700974.6    
   2421000   299.88218      0.89388965     0.67997883     1.5738685      188.77384      107.6726       182.18081      8.9608776      53.073012     -279.71187      215.01545      165.7912       338.38999      3702965.5    
   2422000   299.31069      0.89218615     0.67989253     1.5720787      188.82512      107.64346      182.16593      214.70704      124.36173     -133.06846      142.35622     -35.476234      318.3193       3702666.4    
   2423000   300.98981      0.89719127     0.67898243     1.5761737      188.76998      107.60985      182.14469      178.34234      336.29924     -144.51076      203.01107      23.4917        209.46777      3699997.9    
   2424000   299.37183      0.89236841     0.67699424     1.5693627      188.78721      107.60017      181.94217      44.484394      382.33925      238.74168      129.92417      135.42253      98.955651      3695888.7    
   2425000   299.34547      0.89228984     0.68048339     1.5727732      188.80685      107.63142      182.16364     -41.910504     -105.50272     -51.340055      9.2997132      42.431406      305.95761      3701847.3    
   2426000   299.55834      0.89292437     0.68125747     1.5741818      188.75061      107.6284       182.20357      220.09234      253.57615     -49.555614      307.1194       116.34701      264.3665       3701452.1    
   2427000   300.26129      0.89501972     0.68050405     1.5755238      188.77216      107.60492      182.13046      312.58157      252.91752     -105.48309     -129.71824      82.591441      428.1008       3699581.9    
   2428000   300.5814       0.89597388     0.6785422      1.5745161      188.77065      107.63107      182.00073      364.302        298.36069      433.3757      -165.0461      -53.984357      201.04296      3697815.6    
   2429000   299.83207      0.89374029     0.67989712     1.5736374      188.79515      107.6441       182.05816      1.3292545      262.80589      206.99037     -54.932673      45.200288      264.78139      3699910.4    
   2430000   300.37877      0.89536989     0.67971787     1.5750878      188.89578      107.6395       182.11925     -168.69838      163.8162       207.47461     -28.957169      92.379434      309.53762      3702966.6    
   2431000   300.20303      0.89484607     0.67856848     1.5734145      188.79055      107.62961      182.23585     -230.07349     -365.53837     -252.51055      113.1811      -136.00293      123.8039       3702932.8    
   2432000   300.39057      0.89540508     0.67917626     1.5745813      188.76616      107.59227      182.10061     -80.635976     -230.23984     -90.522768     -60.441472      115.2564       306.04232      3698423.3    
   2433000   300.92753      0.89700564     0.68023499     1.5772406      188.72626      107.62523      182.17191      82.270223      115.56866     -10.769716      95.376863      97.843787      200.88405      3700222.4    
   2434000   300.09985      0.8945385      0.67952103     1.5740595      188.82348      107.63131      182.12046      365.0868       44.689081     -188.18339     -194.7457       61.991378      281.38041      3701292.1    
   2435000   299.91842      0.89399768     0.67900036     1.572998       188.79512      107.66442      182.08779     -241.05953     -24.48258      -94.576283     -28.805461      96.798519      261.07578      3701210.5    
   2436000   300.66431      0.89622103     0.68026823     1.5764893      188.8647       107.6557       182.10983     -323.15506     -270.82968     -16.373847      156.95751     -170.62668      122.65577      3702722.9    
   2437000   299.85209      0.89379997     0.67994856     1.5737485      188.86667      107.64632      182.21748     -129.0713       59.036677      50.886519     -90.154069      126.99464      227.84897      3704627.6    
   2438000   299.60665      0.89306837     0.68072718     1.5737956      188.80526      107.65644      182.1896      -204.38821     -62.970177     -167.15813      75.866486      73.806787      315.16613      3703204.6    
   2439000   299.70343      0.89335686     0.67930352     1.5726604      188.84174      107.64825      182.17796      279.51881      610.30488      72.946219     -238.85748      69.750433      151.87492      3703401.6    
   2440000   299.57672      0.89297915     0.67878025     1.5717594      188.77428      107.65996      182.07985      14.487952     -290.17109     -34.881135     -28.280074      112.09931      144.92287      3700487.3    
   2441000   300.04508      0.89437522     0.67965697     1.5740322      188.7114       107.61619      182.17607     -218.16126     -135.32357      108.09837      96.909252     -95.879357      125.87447      3699704.7    
   2442000   299.9228       0.89401075     0.67917805     1.5731888      188.82206      107.59545      182.24055     -321.51224     -117.20625     -108.35392      46.759777      6.3495319      232.97919      3702470.9    
   2443000   299.61743      0.89310048     0.68023033     1.5733308      188.76742      107.55565      182.26845      71.606061     -12.178097      108.0048       25.696812      27.720794      320.4954       3700596.8    
   2444000   299.6398       0.89316717     0.68086896     1.5740361      188.77163      107.64409      182.11909     -70.348906     -43.121496     -63.331983      144.70012      179.08641      104.98919      3700687.4    
   2445000   300.0118       0.89427602     0.68140243     1.5756784      188.79465      107.6992       182.12116      196.34234     -198.56439     -30.03189      -39.487326      107.75841      296.58238      3703075.5    
   2446000   300.07705      0.89447054     0.68061112     1.5750817      188.77288      107.62065      182.09838      13.658496     -247.2448      -83.336927      53.541039      117.32101      211.86536      3699485.4    
   2447000   299.98508      0.89419638     0.67962214     1.5738185      188.75123      107.5828       182.24702     -27.181663      114.30929     -94.156379     -27.051174      78.814898      314.19611      3700778.1    
   2448000   300.10037      0.89454005     0.67952028     1.5740603      188.84844      107.59149      182.23695     -166.16709     -174.93111     -160.23302     -125.36835     -9.0327165      204.61861      3702778.8    
   2449000   300.31919      0.89519231     0.68374567     1.578938       188.84315      107.59711      182.22163      237.86898     -0.48910321    -16.847051     -125.24694      102.49361      189.1412       3702557.2    
   2450000   300.13411      0.89464061     0.68197014     1.5766108      188.81796      107.68404      182.21046      43.170393     -258.72431     -193.7208      -29.822547     -65.810219      336.98787      3704827      
   2451000   300.39431      0.89541621     0.68128589     1.5767021      188.89753      107.64862      182.15486     -41.320353     -211.27772      37.71918       31.613665      123.66765      375.70112      3704038.5    
   2452000   299.57651      0.89297853     0.67960427     1.5725828      188.87725      107.60756      182.17191      100.83824      146.50544      173.2391       94.691929      179.8783       206.34246      3702575      
   2453000   299.56789      0.89295284     0.68241647     1.5753693      188.84522      107.65885      182.16903      37.846376      29.589824      173.95612     -77.940595     -33.418983      82.08241       3703652.8    
   2454000   300.59469      0.89601351     0.67990524     1.5759188      188.8223       107.67836      182.18082      129.10457     -57.34247       134.77451     -45.659621      78.150201      266.01329      3704114.5    
   2455000   299.41146      0.89248653     0.67994864     1.5724352      188.76138      107.6628       182.15418     -1.652578      -290.41585      2.2310976     -72.1184        89.198832      272.06319      3701842.7    
   2456000   300.33737      0.89524651     0.68088544     1.5761319      188.79479      107.67224      182.30555      135.24954     -179.36872      1.6040274     -79.539035      42.989956      169.93829      3705899.4    
   2457000   300.14054      0.89465978     0.6785132      1.573173       188.80532      107.66783      182.25248     -294.24154     -75.973603      18.014654      334.57727      129.16349      293.06215      3704875.6    
   2458000   299.88586      0.89390063     0.67830972     1.5722104      188.75905      107.65008      182.15884     -171.05474      73.41839       104.93781     -117.3961      -22.74141       284.802        3701454.3    
   2459000   300.57156      0.89594456     0.67968744     1.575632       188.73302      107.60169      182.146        170.62733      300.94119     -85.971449     -289.70405      96.117144      189.55973      3699019.6    
   2460000   300.1618       0.89472316     0.6794642      1.5741874      188.77406      107.64429      182.23378      134.18122      271.67016      126.20153      90.723835      89.14325       248.59668      3703072.4    
   2461000   300.25587      0.89500355     0.67808313     1.5730867      188.79975      107.64815      182.12698     -150.08806     -51.796101      16.386361      118.52976     -48.140243      203.92582      3701538.6    
   2462000   299.99842      0.89423615     0.6823591      1.5765952      188.81509      107.64433      182.22788      30.55421       329.21627      203.61455     -80.000708      89.224606      216.95908      3703758.8    
   2463000   300.24795      0.89497994     0.68115712     1.5761371      188.8253       107.59593      182.2232       24.240466     -198.16764      48.749627      105.85795     -82.087672      134.51692      3702198.6    
   2464000   300.04558      0.89437673     0.68151634     1.5758931      188.87778      107.62869      182.16839     -121.09765      2.7377671     -47.540504     -116.63379      25.645188      112.72398      3703240.7    
   2465000   299.43383      0.89255323     0.68216702     1.5747202      188.74184      107.70896      182.1782      -5.2278759     -27.399553     -3.5311042     -64.045801      43.486389      273.45051      3703534.6    
   2466000   299.53839      0.8928649      0.68237424     1.5752391      188.84316      107.64314      182.15719     -154.15886     -54.46836      -82.402631     -55.260837      18.513914      292.55222      3702831.4    
   2467000   300.12871      0.89462453     0.67985274     1.5744773      188.85403      107.62438      182.09549      132.78452     -433.58458      16.913541      2.113298      -10.63596       244.12157      3701145.2    
   2468000   299.79072      0.89361703     0.68152233     1.5751394      188.80854      107.65549      182.28658     -163.0765      -29.007884     -107.50946      116.23369      97.473242      147.87149      3705207.3    
   2469000   300.77905      0.89656304     0.68111144     1.5776745      188.85351      107.64071      182.28341     -1.7469089      52.704751     -43.646822     -175.92317      124.43166      168.30105      3705516.6    
   2470000   300.28586      0.89509294     0.68157068     1.5766636      188.8494       107.66486      182.22717      144.02449      130.17323     -32.192382      122.2199       79.119634      154.74953      3705123.7    
   2471000   300.18575      0.89479453     0.6798154      1.5746099      188.83818      107.61439      182.04469      433.98751     -128.76685      63.116117     -78.120226      110.09935      39.951959      3699458.7    
   2472000   300.06598      0.89443753     0.68175643     1.576194       188.82165      107.68283      182.19214     -131.64483     -307.59977     -184.91556     -67.32545       84.343836      164.34149      3704485.4    
   2473000   299.57584      0.89297652     0.68044371     1.5734202      188.73018      107.6852       182.20139     -128.82217     -30.354717      2.8159825      27.878972      98.299581      344.41919      3702960.3    
   2474000   300.03687      0.89435075     0.68263288     1.5769836      188.68745      107.6937       182.19208     -152.24727      27.629513     -42.452186      55.173045     -14.612043      210.87848      3702225.1    
   2475000   299.82235      0.89371131     0.68041996     1.5741313      188.75726      107.6954       182.20778      379.2443       72.557553     -65.625682     -130.569       -28.112679      169.58699      3703972.4    
   2476000   300.00861      0.89426653     0.68096854     1.5752351      188.86903      107.63202      182.12254     -12.400981     -97.418988      124.34375     -143.35776      39.130492      275.07165      3702251.6    
   2477000   300.31181      0.89517031     0.67937566     1.574546       188.82988      107.57385      182.11172     -88.194529      282.897        94.686401      158.47314      10.329188      138.71032      3699264      
   2478000   299.82684      0.89372469     0.68043269     1.5741574      188.80264      107.64316      182.17016      132.21752      59.701205      24.06451       221.1058       177.86555      132.74731      3702301.1    
   2479000   299.79012      0.89361523     0.68204077     1.575656       188.84346      107.64613      182.27737     -36.742787     -52.641468     -60.829236     -41.54744       104.33429      203.48016      3705383.2    
   2480000   300.3292       0.89522213     0.67963148     1.5748536      188.8301       107.65048      182.31052     -108.63516      193.54772     -28.584336      117.61078      61.2184        148.08897      3705944.8    
   2481000   299.8215       0.8937088      0.68288225     1.576591       188.87192      107.63769      182.23406      36.054513      65.995528      223.08037      112.41025      51.936982      193.32947      3704770.4    
   2482000   299.81817      0.89369885     0.68250378     1.5762026      188.82925      107.65492      182.25633     -81.878797      39.209493      89.614281      56.009737     -9.1189844      321.20935      3704979      
   2483000   299.67276      0.89326542     0.68101263     1.5742781      188.79149      107.61705      182.26003      10.983231      81.828431     -167.31809      144.70779      36.055667      226.21431      3703010.5    
   2484000   300.03288      0.89433887     0.6788087      1.5731476      188.8148       107.61593      182.23723     -138.24429     -111.89458     -112.17167      131.16424     -70.584889      378.61075      3702966      
   2485000   299.90375      0.89395395     0.68228728     1.5762412      188.79105      107.71211      182.16427      153.36947     -195.98048      43.258618      223.50324      221.40006      278.6049       3704325.6    
   2486000   299.76591      0.89354308     0.6782621      1.5718052      188.85634      107.68795      182.22041      4.5116556     -34.575704      159.12314      25.457248      171.47508      206.12769      3705917.2    
   2487000   300.07473      0.8944636      0.68198023     1.5764438      188.82178      107.64085      182.23322     -33.081408      49.281791      227.25662     -39.668011      84.744972      193.54204      3703878.5    
   2488000   299.93065      0.89403414     0.68076742     1.5748016      188.81063      107.64532      182.30853     -283.32242      139.13349     -127.36556      116.93397      227.00494      359.03088      3705344.2    
   2489000   299.5711       0.89296239     0.68013255     1.5730949      188.79059      107.66756      182.21501     -24.538108     -27.102227     -68.596685     -7.9448613      64.953537      30.214743      3703815.5    
   2490000   299.67971      0.89328614     0.67992267     1.5732088      188.69394      107.69522      182.21738      250.82131     -6.6336473      38.228659      252.40777      117.8619       236.13596      3702918.6    
   2491000   299.82995      0.89373398     0.68151532     1.5752493      188.83178      107.73221      182.27718     -59.796541     -40.448134     -49.244766     -120.50908      124.85042      274.13961      3708113.2    
   2492000   300.25292      0.89499477     0.6805286      1.5755234      188.85652      107.66456      182.22163     -165.02635      99.069174     -51.197629      18.381105      72.167198      319.20534      3705140.4    
   2493000   300.21407      0.89487897     0.68089072     1.5757697      188.863        107.64806      182.24407     -85.114617     -242.15958      75.712198     -204.36139      81.237821      268.38154      3705155.9    
   2494000   299.96324      0.89413128     0.68111954     1.5752508      188.8185       107.61445      182.09026      22.966733      108.57236      267.74489     -35.627643     -38.475314      293.56726      3700001.1    
   2495000   299.90182      0.8939482      0.67901449     1.5729627      188.76145      107.63385      182.19134     -235.21884      218.84569     -73.559468      184.37293      8.5447934      386.194        3701603.5    
   2496000   300.48231      0.89567854     0.68059168     1.5762702      188.82649      107.62923      182.27402     -183.71094     -119.48356     -49.265163     -122.6967       76.474902      222.41837      3704400.4    
   2497000   300.4439       0.89556403     0.68004611     1.5756101      188.8019       107.61689      182.34768      185.92737      277.06117     -104.95667     -8.3055542      0.68484395     193.43617      3704990      
   2498000   300.81545      0.89667156     0.68350384     1.5801754      188.85918      107.605        182.2759       250.96445     -112.87771      95.554201      66.699671      6.7866016      321.7235       3704245.9    
   2499000   299.85292      0.89380243     0.6793512      1.5731536      188.88729      107.64115      182.19715     -193.62867     -348.20825      129.19719      115.3157       28.596593      285.80933      3704440.9    
   2500000   299.72026      0.89340701     0.68165798     1.575065       188.88715      107.67328      182.36118     -345.88593      8.0685177      57.733773     -20.917434      108.55248      168.33795      3708879.9    
   2501000   299.57018      0.89295966     0.68000278     1.5729624      188.89004      107.7085       182.28815     -353.41191     -189.72394      105.12975      110.0966       181.87753      292.44984      3708664      
   2502000   300.19366      0.89481812     0.68061944     1.5754376      188.79302      107.67885      182.21351      68.352162     -146.90053      170.61081      57.494513      88.128276      407.99868      3704221.1    
   2503000   299.7465       0.89348521     0.68314388     1.5766291      188.95209      107.617        182.31335     -271.37692      8.4073249     -79.060237      72.318939     -108.00743      102.79089      3707242.8    
   2504000   300.04828      0.89438476     0.6806147      1.5749995      188.86059      107.64908      182.2848       139.27793     -12.721532      30.929976     -5.6814631      127.54887      235.49054      3705972      
   2505000   299.7139       0.89338804     0.68331277     1.5767008      188.79793      107.66301      182.16611      186.46739      176.29891      205.22494     -32.882902      92.890928      219.54897      3702809.2    
   2506000   300.04906      0.8943871      0.67996878     1.5743559      188.78828      107.67071      182.18413     -11.362988      92.653979      39.085483      132.67109      159.56601      293.26648      3703251.1    
   2507000   300.50138      0.89573537     0.680638       1.5763734      188.79193      107.6563       182.30114      432.61031     -63.028046      49.449242      108.28348      14.068515      212.84298      3705205.2    
   2508000   299.86273      0.89383169     0.68039221     1.5742239      188.77027      107.64379      182.23499      127.65537     -4.526245       19.814283     -22.700121      134.19525      242.07453      3703005.5    
   2509000   300.15054      0.89468958     0.68296914     1.5776587      188.86529      107.6668       182.32946     -50.846436     -79.776157      161.62667     -30.613455      8.3736366      178.66037      3707582.5    
   2510000   300.07294      0.89445828     0.68309899     1.5775573      188.83368      107.68092      182.31814     -51.215964      92.574251     -131.85367      73.669211      8.0539955      199.94248      3707217.6    
   2511000   300.18262      0.8947852      0.68063736     1.5754226      188.77026      107.67006      182.33799      257.57091     -10.506622      125.57636     -175.64954      123.05406      307.68746      3706002.2    
   2512000   299.82098      0.89370724     0.68006194     1.5737692      188.8039       107.62482      182.20951     -5.405809       58.250906     -11.786956      20.108832      66.915937      306.86922      3702494.8    
   2513000   299.77002      0.89355533     0.68119631     1.5747516      188.78886      107.64346      182.38248     -305.02071     -21.613124     -78.913807     -46.845965      31.249319      141.14392      3706355.9    
   2514000   300.43685      0.89554302     0.67905807     1.5746011      188.74386      107.68752      182.2457      -137.28981      145.35634      175.50431      83.897437      10.14756       179.7363       3704209.2    
   2515000   299.12966      0.89164656     0.6835349      1.5751815      188.79206      107.67708      182.18847      15.928073      225.83983      61.003325      228.15363     -47.015082      233.86418      3703632.6    
   2516000   299.40006      0.89245256     0.68048305     1.5729356      188.82948      107.66946      182.28185      295.01629     -157.75967      78.651002      61.666367      14.514566      267.05885      3706003      
   2517000   300.01833      0.8942955      0.67937789     1.5736734      188.80229      107.68922      182.20058      179.25043     -48.143315      64.922614     -117.84112      135.89675      278.18745      3704497.3    
   2518000   299.94013      0.89406241     0.68198015     1.5760426      188.80103      107.68666      182.17676     -210.13648     -141.47078      337.16054     -246.51254      45.977748      270.59874      3703899.9    
   2519000   299.8396       0.89376274     0.68049241     1.5742552      188.79405      107.66626      182.15995     -101.46601     -598.19898     -106.99142      260.82113      15.654253      280.82558      3702719.6    
   2520000   300.23982      0.89495572     0.68133342     1.5762891      188.7438       107.69067      182.2279       274.25206     -147.68631     -104.01865      2.0560257      71.765183      281.29977      3703954.5    
   2521000   299.72039      0.89340739     0.68314734     1.5765547      188.70905      107.7187       182.36867      458.38842     -113.8331      -180.54608      38.632474      162.81261      125.78098      3707097.9    
   2522000   300.02684      0.89432086     0.68030351     1.5746244      188.85226      107.65343      182.22765     -245.63819     -154.11277      100.97445     -190.49467     -30.848316      73.031168      3704796.3    
   2523000   300.2915       0.89510975     0.68129625     1.576406       188.85193      107.67591      182.15162     -98.688615     -169.71416      86.960971      87.943541      16.141346      222.75891      3704017.3    
   2524000   299.97072      0.89415357     0.68058132     1.5747349      188.83063      107.68258      182.21323     -201.68609     -133.35332     -157.37029      73.422184      3.3920052      226.05479      3705081.9    
   2525000   299.69879      0.89334302     0.68177354     1.5751166      188.76394      107.67141      182.22136      373.89098      403.65956     -42.658991      235.03533      34.50993       267.63912      3703554.3    
   2526000   299.60801      0.89307242     0.67926265     1.5723351      188.73841      107.61483      182.15907     -171.80778     -133.64687     -150.09238      73.194742      45.056292      291.41114      3699842.4    
   2527000   300.14573      0.89467525     0.6817359      1.5764112      188.79388      107.63164      182.29774      17.279144     -0.33548721     21.217396     -27.344251     -107.98363      338.94856      3704325.7    
   2528000   300.72518      0.89640249     0.67742521     1.5738277      188.73408      107.63846      182.18433      67.962304      376.629        55.192136      66.055543      148.57976      246.63738      3701083      
   2529000   300.16012      0.89471816     0.67948308     1.5742012      188.72979      107.68666      182.26088      28.340595      10.482624     -140.04592     -0.40686376     54.633856      151.97427      3704212.1    
   2530000   300.14109      0.89466141     0.6798178      1.5744792      188.84522      107.66529      182.06501      33.384634     -75.447975     -41.272306      69.047306      22.446523      156.94877      3701759.6    
   2531000   299.55314      0.89290886     0.67966545     1.5725743      188.78095      107.67794      182.15649     -48.175341      107.9087       105.86001     -172.38582     -67.063377      178.71952      3702793.9    
   2532000   300.07447      0.89446283     0.67863736     1.5731002      188.75838      107.68757      182.20369     -171.19079      136.48068      8.7041295     -128.22937      49.829346      276.98605      3703641.9    
   2533000   299.08191      0.89150422     0.68043341     1.5719376      188.78926      107.62745      182.26733     -32.523709      100.10793      46.149317     -65.860386      12.485896      156.7479       3703472.8    
   2534000   300.15083      0.89469046     0.6811038      1.5757943      188.74646      107.64543      182.19602     -258.4563      -123.29274      10.386865      38.215792     -47.34226       173.21648      3701802.9    
   2535000   299.70182      0.89335205     0.67822053     1.5715726      188.71661      107.66652      182.06443     -155.63409     -164.28763      129.70343     -121.78796     -65.352765      177.63445      3699268.8    
   2536000   299.9725       0.8941589      0.67804206     1.572201       188.68593      107.64523      182.18008     -180.06561     -32.685521      210.89177      99.888346      52.791996      330.44873      3700285.2    
   2537000   299.98878      0.89420742     0.67802831     1.5722357      188.67845      107.59608      182.16841      49.602442      363.5489      -186.93963      167.96264     -142.19244      216.16107      3698212      
   2538000   300.08154      0.8944839      0.68147422     1.5759581      188.7311       107.62292      182.08461      241.74437     -274.12697      29.388077      53.058501     -118.66336      285.95889      3698464.8    
   2539000   299.68615      0.89330533     0.67955911     1.5728644      188.66206      107.67669      182.06847      68.863486     -42.2983       -0.62604275     50.096969     -129.31794      300.05444      3698630.9    
   2540000   299.70506      0.8933617      0.68067901     1.5740407      188.74371      107.68252      182.15498      107.96941     -270.58005     -18.800753      26.313159      79.873515      382.95899      3702190.2    
   2541000   300.3962       0.89542186     0.67819332     1.5736152      188.67266      107.62437      182.24154      49.239929      202.5345      -33.667393     -104.61701     -19.026189      44.327403      3700555.8    
   2542000   300.08121      0.89448293     0.67776249     1.5722454      188.67635      107.61458      182.17221      263.11373     -234.9303       39.247188     -30.703798     -43.363116      264.23094      3698884.1    
   2543000   300.31812      0.89518912     0.67826211     1.5734512      188.6825       107.68083      182.16926     -136.12403     -348.3014      -188.60386      65.895893      61.779378      290.07454      3701221.8    
   2544000   299.92971      0.89403135     0.68091708     1.5749484      188.69246      107.67256      182.17021     -154.72659     -157.64511     -8.6993509     -75.525857      204.126        261.10396      3701152.3    
   2545000   299.55931      0.89292726     0.68035754     1.5732848      188.70344      107.63065      182.14738      377.78379      64.422157     -100.42825      184.91856      22.703113      184.43622      3699462.9    
   2546000   299.87035      0.89385441     0.68123972     1.5750941      188.68774      107.62725      182.23518      126.29613      160.1044      -241.82939     -10.042404      74.574762      203.5857       3700821.7    
   2547000   299.19646      0.89184567     0.67784482     1.5696905      188.73708      107.6542       182.08727      56.59146      -42.942256     -25.378178      175.90784     -51.463781      172.07681      3699711.1    
   2548000   300.24515      0.8949716      0.67946038     1.574432       188.80196      107.5881       182.1541       66.379851      88.053078     -105.10093      68.001949     -25.111756      361.8071       3700067.9    
   2549000   300.29416      0.8951177      0.68173476     1.5768525      188.78812      107.62878      182.30084     -57.302436      224.22077     -339.35629      50.07153       69.779144      128.2585       3704177      
   2550000   299.3749       0.89237755     0.67932012     1.5716977      188.73469      107.63943      182.16953      58.791132      383.58382     -42.398796      30.467646      3.8380981      288.46598      3700827.7    
   2551000   299.53337      0.89284993     0.67966397     1.5725139      188.78227      107.63079      181.95185      152.55455      162.57715      98.410413     -34.872186      42.757023      257.22804      3697040.6    
   2552000   299.97843      0.89417657     0.68099322     1.5751698      188.72219      107.66507      182.21372      14.748048     -226.39839     -208.15723     -31.501059     -13.916589      154.10192      3702361.8    
   2553000   299.63887      0.89316439     0.67745467     1.5706191      188.6943       107.63779      182.19654     -5.9085662     -73.159021      34.515181      67.889067      10.523177      174.5696       3700527.7    
   2554000   299.55378      0.89291076     0.67953756     1.5724483      188.76384      107.70319      182.22014      300.30267     -21.438649      47.577267     -149.69253      48.154532      206.41615      3704620.5    
   2555000   300.61563      0.89607592     0.67853026     1.5746062      188.77267      107.67289      182.13369      139.12776      17.193967      28.919064     -27.825695      110.04445      202.84493      3701994.6    
   2556000   300.14585      0.89467562     0.67889534     1.573571       188.73139      107.65367      182.17382      182.73886      66.296865      54.546708     -128.66205     -80.119004      126.55287      3701339.8    
   2557000   300.07244      0.89445679     0.67842033     1.5728771      188.68939      107.68939      182.09607     -193.59419     -15.173248      31.316875     -20.818624      57.779726      303.09534      3700164      
   2558000   300.87732      0.89685599     0.67924127     1.5760973      188.64353      107.6454       182.26147     -169.94077      5.1289496     -207.48758      52.305906      2.6101167      80.081693      3701112.1    
   2559000   300.00231      0.89424776     0.67941883     1.5736666      188.69091      107.66169      182.17542      111.98615      333.70522      33.718216     -64.427635      28.043222      370.10784      3700854      
   2560000   299.78386      0.8935966      0.67873296     1.5723296      188.72436      107.62463      182.11545     -81.568542     -95.173258     -93.574449     -24.737341     -85.253484      311.69535      3699017.9    
   2561000   300.22933      0.89492444     0.68127512     1.5761996      188.78233      107.62562      182.17705     -31.543476      196.3504       9.1306603      68.546563     -169.75742      365.1042       3701439.6    
   2562000   300.1096       0.89456757     0.68216588     1.5767334      188.66014      107.67847      182.27088      76.865964     -65.125418      20.24493       7.609394       120.86481      201.91229      3702766.3    
   2563000   299.85788      0.89381724     0.67817829     1.5719955      188.73342      107.67451      182.0997       0.42382895     257.62315      221.18121     -88.630844     -41.285015      119.47363      3700589.5    
   2564000   299.67046      0.89325855     0.68130834     1.5745669      188.77409      107.64557      182.18853      54.234779     -74.406513     -4.5244079     -47.440975     -119.33387      223.67736      3702197.3    
   2565000   299.88688      0.89390368     0.67717652     1.5710802      188.80298      107.60403      182.19813      206.54831      98.093845     -39.70812       107.26584      179.84713      237.43856      3701530.2    
   2566000   299.99734      0.89423292     0.68008841     1.5743213      188.70404      107.64347      182.28176      63.74685       161.33981      97.499142     -37.932539      9.4221291      205.22085      3702645.3    
   2567000   299.88635      0.89390208     0.67894318     1.5728453      188.76407      107.6465       182.11207     -128.00361      251.00322      193.12314      232.79516     -2.97894        235.95883      3700479.6    
   2568000   299.94703      0.89408298     0.67717226     1.5712552      188.67654      107.62033      182.0542      -95.860746     -272.29027     -78.437814      107.22268     -134.17764      291.36151      3696689.1    
   2569000   300.55726      0.89590195     0.67978027     1.5756822      188.72897      107.62528      182.12224      184.35388     -0.89516071    -61.571227      117.35882     -0.77861657     212.55015      3699268.3    
   2570000   300.54118      0.895854       0.68008844     1.5759424      188.60443      107.61232      182.20307     -345.03217      282.45732     -15.94152       67.607947     -96.153041      166.40439      3698022.7    
   2571000   300.07675      0.89446964     0.67776357     1.5722332      188.65663      107.61797      182.19002     -67.903609      38.900253     -170.59204     -46.757908      84.484251      190.75211      3698975.3    
   2572000   300.38055      0.89537521     0.68001168     1.5753869      188.73454      107.62323      182.25195      34.771874     -259.72199     -136.94428      25.40295       81.84853       72.678924      3701941.9    
   2573000   300.26531      0.8950317      0.68101391     1.5760456      188.77516      107.64258      182.22533      9.7578045     -317.71628     -37.185816      111.61145     -84.779975      163.73857      3702863.3    
   2574000   299.57675      0.89297924     0.68003301     1.5730122      188.71345      107.56801      182.17817      28.033111      195.67157     -243.9991      -133.31568     -94.485371      266.05981      3698131.4    
   2575000   300.15867      0.89471384     0.68070591     1.5754197      188.71449      107.6833       182.17095     -293.17703     -51.408459      100.64058     -44.550074      9.0105376      107.96057      3701968.5    
   2576000   300.16441      0.89473093     0.67988583     1.5746168      188.80558      107.66519      182.13151     -356.38697     -34.030142      118.3286      -14.500441     -4.4921725      305.57326      3702330.8    
   2577000   300.36493      0.89532864     0.67888321     1.5742118      188.70517      107.6809       182.03989     -238.07927      339.53453      105.05845      78.937512     -74.300882      95.576962      3699040.2    
   2578000   300.62944      0.89611709     0.6786357      1.5747528      188.7454       107.64459      182.11282      25.551355     -118.61219      154.95102     -109.27195      9.0570718      288.2891       3700063      
   2579000   300.04224      0.89436677     0.67734936     1.5717161      188.70556      107.6679       182.1751       108.65506     -116.45551     -78.146733      33.952178      98.621972      61.031778      3701348.3    
   2580000   299.13803      0.89167149     0.68069253     1.572364       188.82423      107.68483      182.12287      68.229981     -222.46328      266.63256      192.70506      48.036162      233.43863      3703196.2    
   2581000   300.33147      0.89522889     0.67967953     1.5749084      188.74766      107.63532      182.15697     -246.14969      299.11221      84.674561      96.897831      15.275267      266.61628      3700685.3    
   2582000   299.9533       0.89410166     0.68053431     1.574636       188.68052      107.60486      182.17205      26.178988      183.7368       75.742031     -116.33629     -15.668254      228.34164      3698628.4    
   2583000   300.00778      0.89426406     0.67985215     1.5741162      188.77013      107.69772      182.13147     -127.24409     -351.41721     -14.426674      75.264731     -109.53589      234.07976      3702753.2    
   2584000   299.78087      0.89358768     0.67981959     1.5734073      188.71334      107.64539      182.14063     -103.35453      76.68824       78.794522      18.759052     -65.556414      89.49699       3700027      
   2585000   299.57698      0.89297991     0.6810461      1.574026       188.74758      107.60713      182.1321       56.754125      233.31816      105.71805      80.904822      3.3733887      321.53699      3699209.3    
   2586000   300.24639      0.89497529     0.67716103     1.5721363      188.71789      107.63337      181.98398     -45.910832     -48.760365      194.90998     -13.534342     -68.917681      171.27105      3696520.8    
   2587000   299.4975       0.89274301     0.67787927     1.5706223      188.69961      107.62417      182.113       -200.41835     -235.34677      86.847538     -36.395525      52.42897       328.27414      3698467.3    
   2588000   300.34501      0.89526926     0.67898179     1.574251       188.7644       107.5802       182.0885      -166.26088     -192.90355     -84.097403     -70.800264      39.33925       309.83779      3697727.9    
   2589000   299.66242      0.89323459     0.67889255     1.5721271      188.7985       107.5786       182.08369     -128.74311      204.72429     -165.90533     -292.02154     -25.562825      392.85272      3698243.2    
   2590000   300.66236      0.89621522     0.67875431     1.5749695      188.76367      107.62228      182.15261     -267.28826      103.63887     -187.13944     -152.51976     -98.304519      363.68996      3700462.3    
   2591000   300.75678      0.89649666     0.6792702      1.5757669      188.6307       107.6289       182.11335      193.11824     -38.430093      29.721689      208.7884      -106.7458       223.91065      3697286.2    
   2592000   299.9535       0.89410224     0.6772114      1.5713136      188.71003      107.58202      182.05485      152.93507      38.906973      84.49926       178.9238       48.842602      167.60513      3696042.1    
   2593000   299.88426      0.89389586     0.68113801     1.5750339      188.69231      107.60272      182.02642      263.41785      41.466133      46.308951      235.74966      133.05885      265.36423      3695828.9    
   2594000   300.81603      0.8966733      0.67975875     1.576432       188.76217      107.58756      181.98161      226.10356     -184.15628     -111.48706      121.35206     -17.156395      162.53769      3695766.5    
   2595000   299.68551      0.89330342     0.67841768     1.5717211      188.6543       107.5948       182.18902     -18.288497      163.84418     -9.2656464     -202.96274     -27.883671      224.14767      3698113.1    
   2596000   299.63661      0.89315765     0.67888852     1.5720462      188.74222      107.57623      182.14032     -166.32882      269.50434     -36.070129     -104.03992     -20.749239      128.27682      3698209.1    
   2597000   299.75354      0.8935062      0.68109875     1.574605       188.78607      107.59737      182.09891      39.864278      269.68074      160.55192     -161.65055      22.316062      206.98961      3698954.1    
   2598000   299.45607      0.8926195      0.67804223     1.5706617      188.74         107.56285      182.04219     -3.7365128      9.18985       -2.8699691      121.35187     -24.793039      157.20775      3695713.5    
   2599000   299.83953      0.89376251     0.68070672     1.5744692      188.82969      107.58328      182.13498      67.514414      103.31866     -22.716737      212.2204      -87.039456      221.79886      3700056.9    
   2600000   299.53141      0.89284409     0.6765842      1.5694283      188.7369       107.51085      181.95681      234.51068     -160.78944      127.38925      82.767027      57.319211      155.56899      3692134      
   2601000   299.46113      0.89263461     0.67801494     1.5706495      188.74692      107.54262      182.1132       173.03396     -253.4924      -103.36738     -25.499134     -187.68376      77.917836      3696595.1    
   2602000   300.09117      0.89451262     0.67715019     1.5716628      188.78929      107.5493       182.03935      224.2376      -133.12008     -8.7690086     -27.06856       0.84462537     120.64519      3696155.2    
   2603000   298.98701      0.89122134     0.67641517     1.5676365      188.7713       107.56789      181.97805     -190.13166     -81.733007      18.881764     -21.619261     -16.760048      224.19192      3695197.2    
   2604000   299.9704       0.89415263     0.67790358     1.5720562      188.75237      107.60172      182.11251      98.383448     -148.24543      118.77377      65.700784     -61.585573      190.67676      3698719.7    
   2605000   300.05646      0.89440915     0.6779902      1.5723993      188.76927      107.58962      182.06104     -586.57364     -92.017554      115.04107     -137.44274      6.962942       84.657186      3697589.3    
   2606000   300.21576      0.894884       0.67939013     1.5742741      188.72518      107.60137      182.02418     -66.17448       95.716526      61.38995      -7.7948253      37.200432      92.664183      3696380.9    
   2607000   299.72162      0.89341105     0.67731928     1.5707303      188.72355      107.52564      182.01011      162.08879      56.934248     -16.963372      12.984726     -41.345398      211.30796      3693462      
   2608000   299.50846      0.89277568     0.67749542     1.5702711      188.84814      107.55512      182.13404     -574.71182     -103.79802     -128.94591      18.545637      11.335693      261.2616       3699431      
   2609000   300.38028      0.89537439     0.67952566     1.5749         188.83436      107.53937      182.03379      303.82445      249.86335      134.32745      152.44169     -31.881162      53.20964       3696583.3    
   2610000   299.79004      0.89361502     0.67699217     1.5706072      188.80761      107.5446       181.95267     -37.760274      151.80343      236.46434     -117.98663     -10.103506      204.91359      3694592.3    
   2611000   299.837        0.89375499     0.67861897     1.572374       188.76931      107.53673      182.07886     -148.17421      46.946497     -134.55315     -178.88651     -71.644542      151.02697      3696134.2    
   2612000   299.94197      0.89406787     0.67776536     1.5718332      188.71299      107.52548      182.09723      340.97377      241.57507      17.41535       15.212216     -41.472307      68.742536      3695017.7    
   2613000   299.58226      0.89299565     0.67927951     1.5722752      188.81694      107.55267      182.04934     -31.613744      315.09111      8.8313142     -176.69446      63.960435      64.841998      3697015.3    
   2614000   300.7455       0.89646306     0.67694121     1.5734043      188.69349      107.56962      182.0919      -202.07792      97.312335     -34.347018      40.986668     -59.673335      69.48842       3696044.4    
   2615000   299.38702      0.89241369     0.67588331     1.568297       188.77294      107.50686      182.08363     -77.471537     -179.90832      25.165839      159.67271      41.068261      146.72914      3695275.7    
   2616000   299.90098      0.8939457      0.67830844     1.5722541      188.73828      107.61237      182.04912      112.01757     -69.700439      145.01292     -5.585417      -132.2429       111.94355      3697522.3    
   2617000   300.26509      0.89503104     0.68006957     1.5751006      188.66925      107.585        181.94758     -78.292015      49.285554      225.92887      96.191355     -104.7293       221.52026      3693168.6    
   2618000   300.03949      0.89435858     0.67845151     1.5728101      188.79439      107.54633      182.01641      101.5725      -148.47054      38.967482      31.385076     -84.234241      243.08679      3695687.4    
   2619000   299.95343      0.89410204     0.67789472     1.5719968      188.73668      107.53948      182.02666     -13.635898     -70.395956     -31.65964       111.85343      53.047293      86.943795      3694530.4    
   2620000   299.76211      0.89353176     0.67756462     1.5710964      188.75161      107.56304      182.10604     -70.392094     -748.99732      67.954136      83.697894     -114.68785      14.33046       3697243.8    
   2621000   299.44377      0.89258285     0.67735057     1.5699334      188.76294      107.54746      182.07098     -323.94573      66.863948     -23.007153      35.827909     -28.742777      136.17412      3696218.6    
   2622000   299.66056      0.89322906     0.67675033     1.5699794      188.74027      107.55324      182.07455      146.80764      179.76936      77.061119      141.75856     -20.343242      246.21252      3696045.5    
   2623000   299.70061      0.89334844     0.6779149      1.5712633      188.79224      107.54062      182.00341     -321.21786      146.26314      78.93923       94.689198     -16.700049      133.35243      3695185.2    
   2624000   299.5638       0.89294064     0.67753938     1.57048        188.83289      107.55479      182.00064      142.59123     -0.59946476    -65.486646      170.55089      84.556671      213.18604      3696411.6    
   2625000   300.27672      0.8950657      0.67850455     1.5735703      188.82051      107.54907      182.20627     -311.20779     -23.971262     -160.84895      181.67906     -27.371173      74.595974      3700148.6    
   2626000   299.97687      0.8941719      0.67877291     1.5729448      188.76483      107.54049      182.09987      2.1155792     -111.20041      16.656465     -74.711736     -52.323228      200.07581      3696602.2    
   2627000   300.12316      0.89460799     0.67869165     1.5732996      188.66532      107.57         181.96989      93.534369     -68.946257      67.812882      26.506621     -7.3985682      117.81919      3693029.6    
   2628000   300.32568      0.89521164     0.67719416     1.5724058      188.78746      107.58036      182.01973     -434.95985     -96.891009     -170.0024      -64.44618      -69.908005      185.92368      3696788.5    
   2629000   300.53892      0.89584729     0.67873864     1.5745859      188.80496      107.57679      182.00873      6.816407      -98.571202      170.91411      132.8726       92.242215      124.95955      3696785      
   2630000   299.91186      0.89397814     0.67689895     1.5708771      188.79655      107.52338      182.03825      144.98968      256.81527     -87.056868     -121.79887      58.762656      56.418051      3695384.4    
   2631000   300.1113       0.89457263     0.67864104     1.5732137      188.77497      107.55223      182.15348      153.16731      82.009403      124.36321      144.86191      133.69898      275.38959      3698292.9    
   2632000   300.11944      0.89459688     0.67741451     1.5720114      188.71602      107.55276      182.08425      100.47658     -29.049823      247.47044      21.449061      74.458584      108.18164      3695751      
   2633000   300.40965      0.89546193     0.67586728     1.5713292      188.64648      107.56589      182.063        139.79813     -188.40384     -44.524198      66.830438     -64.429439      286.85438      3694408.9    
   2634000   299.73689      0.89345658     0.67516906     1.5686256      188.68948      107.54727      181.92869     -13.268323      166.69482      106.84489      162.89836      26.556367      112.7408       3691886.1    
   2635000   300.55554      0.89589682     0.6781593      1.5740561      188.68458      107.53769      182.09999      315.10357     -89.883738     -95.222077      10.771332      92.353511      119.40799      3694936.9    
   2636000   300.19871      0.89483319     0.677864       1.5726972      188.7923       107.5972       182.12424      478.90915      135.2838      -114.47986      61.803132     -130.31165      212.54895      3699585.1    
   2637000   299.63208      0.89314417     0.67779645     1.5709406      188.83275      107.54316      182.14801     -357.1389       198.96807     -273.68053     -60.654532      66.05134       248.50762      3699001.5    
   2638000   299.59123      0.89302239     0.67794618     1.5709686      188.72928      107.54134      182.01798      55.711722      432.73419      240.66268      60.248794      46.938865      200.82171      3694273.2    
   2639000   300.23436      0.89493944     0.67762675     1.5725662      188.6865       107.56303      182.06193      84.511159     -129.57782     -80.823524     -151.70213      19.873354      137.05145      3695072.8    
   2640000   299.54479      0.89288398     0.67472666     1.5676106      188.76357      107.58783      181.9991      -135.61586     -301.83618     -33.771222     -73.461163     -109.83779      111.84598      3696158.3    
   2641000   299.90816      0.8939671      0.67878284     1.5727499      188.73703      107.60077      182.09237     -41.70237      -54.589584     -35.423246     -262.8715       18.20916       281.03         3697977.3    
   2642000   300.27846      0.89507089     0.67877708     1.573848       188.7542       107.60842      182.1027      -358.29656      190.12868     -5.6118011     -99.195451      119.50975      210.53057      3698786.5    
   2643000   299.77807      0.89357932     0.67811566     1.571695       188.73566      107.59713      181.98108      22.226957      21.238899     -13.759712     -6.5599346      141.92636      114.82746      3695565.4    
   2644000   300.51156      0.89576572     0.67888077     1.5746465      188.72288      107.58822      182.0916      -164.77745     -13.687866      5.9727641      23.463689      5.3197653      208.24206      3697253.1    
   2645000   299.90837      0.89396772     0.67745927     1.571427       188.80973      107.56477      182.05234      261.39541      165.45855      87.275438     -169.62709      48.563668      46.327399      3697350.9    
   2646000   300.08457      0.89449294     0.67691218     1.5714051      188.73541      107.5472       182.04593     -237.2393       208.21451     -29.005348      130.75837     -3.6694843      122.0217       3695162      
   2647000   299.83994      0.89376375     0.67790151     1.5716653      188.76727      107.51352      182.12877      269.55012      355.4103       9.3377212     -72.143534     -162.39955      143.83366      3696309.6    
   2648000   300.45482      0.8955966      0.67720002     1.5727966      188.76692      107.54269      182.04421     -227.48279     -267.00291     -77.597532     -150.3666      -14.047576      149.91412      3695589      
   2649000   299.98514      0.89419656     0.67740376     1.5716003      188.72933      107.57285      181.99873      42.008439     -236.99761      66.785002      148.1521       71.759282      278.50886      3694965.8    
   2650000   299.59797      0.89304249     0.67800267     1.5710452      188.77427      107.55751      181.98679      220.04931      48.25322       102.83979      111.99657      118.54645      147.66184      3695076.5    
   2651000   300.22884      0.89492298     0.67787502     1.572798       188.76473      107.54599      182.15826      107.93251     -89.956508     -74.909843     -81.934688      68.801183      70.999863      3697974.7    
   2652000   299.89152      0.89391749     0.6775514      1.5714689      188.6988       107.57252      182.10833     -100.21727      112.35043     -3.2695373      55.551482     -60.547824      213.39587      3696581.6    
   2653000   300.42014      0.89549322     0.67757902     1.5730722      188.68349      107.53179      182.07637     -32.649944      30.794764      177.27058     -44.468601     -61.658213      213.93073      3694233.4    
   2654000   300.02711      0.89432167     0.67685757     1.5711792      188.73164      107.53421      182.06184      47.290362     -146.42121     -102.62109      193.79952     -90.029669      140.81811      3694964.7    
   2655000   300.21853      0.89489227     0.67755776     1.57245        188.70933      107.57611      182.09985     -124.92892      207.60482     -117.31981     -140.37035     -3.008206       155.83863      3696738.8    
   2656000   299.94648      0.89408132     0.67661511     1.5706964      188.79374      107.53278      182.17609      38.117092      163.51266     -55.789165      37.106317      75.440129      172.68025      3698450.7    
   2657000   299.62169      0.89311318     0.67898267     1.5720959      188.78338      107.58222      182.01454      98.807547      273.75455     -67.712879     -3.0053175     -9.8665382      204.87201      3696666.9    
   2658000   300.13625      0.89464701     0.67666344     1.5713104      188.79517      107.60411      182.06359      146.4533       67.067083     -204.5193       54.055505     -76.644004      289.70022      3698646.9    
   2659000   299.96373      0.89413273     0.67900981     1.5731425      188.69178      107.58725      182.22848      54.691313     -242.90504     -29.324841     -27.817217      164.9291       257.02458      3699389.3    
   2660000   300.20762      0.89485975     0.67834949     1.5732092      188.73352      107.56181      182.06587      228.97037     -209.85983      33.968384      14.413894     -39.999686      215.70683      3696031.7    
   2661000   299.93134      0.8940362      0.67683941     1.5708756      188.72409      107.58383      181.92967      309.67466      20.103837      182.76422     -90.11198       60.572361      100.92975      3693838.1    
   2662000   300.18128      0.89478121     0.67829475     1.573076       188.74633      107.57456      182.11552     -278.04013     -217.24315     -11.94812      -135.36172     -46.137192      162.74651      3697728.9    
   2663000   300.57793      0.89596356     0.67753711     1.5735007      188.77803      107.57723      182.12098     -113.49777     -19.566535     -106.00736      56.888887     -142.4976       199.68003      3698552.6    
   2664000   300.04561      0.89437682     0.6770698      1.5714466      188.67421      107.58843      182.10832     -193.04544     -7.2998637     -10.002273      136.32849      165.39494      288.63531      3696646.4    
   2665000   300.03586      0.89434776     0.67821957     1.5725673      188.80108      107.56397      182.01889     -597.14316     -113.97471     -80.596985      151.62381     -153.18768      233.73718      3696474.9    
   2666000   299.69919      0.89334421     0.67835504     1.5716992      188.86483      107.58525      182.09844     -383.5427       27.413507     -95.012248      229.59458      81.972536      148.10936      3700071.1    
   2667000   299.55774      0.89292257     0.67874079     1.5716634      188.73774      107.62341      182.10677     -149.77842     -372.32015     -92.416713     -70.770316     -46.474914      187.85157      3699061.8    
   2668000   299.74025      0.8934666      0.67867        1.5721366      188.79125      107.58425      182.12487     -224.47094     -236.23746      29.724035     -121.37107     -95.433053      225.25506      3699131.9    
   2669000   299.1864       0.89181566     0.67860721     1.5704229      188.77018      107.54908      182.10843     -159.43987      27.544934     -44.281183      138.23932      98.472947      202.71899      3697176.3    
   2670000   299.62158      0.89311285     0.67697141     1.5700843      188.78161      107.54658      182.06457      526.79506      81.973676      76.489537     -77.243151     -183.41349      34.398169      3696423.7    
   2671000   300.73849      0.89644214     0.67707175     1.5735139      188.70785      107.5737       182.10411     -53.802823      22.895287      92.459946      144.34555     -105.06825      187.89214      3696713.8    
   2672000   300.5671       0.89593126     0.6778458      1.5737771      188.76066      107.60497      182.17943     -161.29151     -163.45345     -146.87869      78.166163     -86.560524      238.04068      3700353.2    
   2673000   300.39309      0.89541258     0.67836633     1.5737789      188.67294      107.58669      182.17157      196.63964      142.50924     -24.952945     -126.31792      16.11138       259.81265      3697845.5    
   2674000   300.3881       0.89539771     0.67672836     1.5721261      188.8183       107.57566      182.09615     -255.17582     -34.299202     -295.38306      132.83682      41.285848      423.78426      3698783.3    
   2675000   299.39943      0.89245067     0.6769563      1.569407       188.84735      107.56912      182.04897      21.302532     -1.5536931      179.27561     -215.92453      80.490116      324.52749      3698168.8    
   2676000   299.66411      0.89323963     0.6775261      1.5707657      188.77744      107.55762      182.08706     -118.68778     -52.345296     -58.821627     -30.788131     -44.957811      128.75484      3697177.9    
   2677000   300.47698      0.89566265     0.67618133     1.571844       188.80552      107.56957      182.09673     -226.60711      302.31775      60.319091     -116.77551     -122.42114      70.32986       3698335      
   2678000   300.11294      0.89457752     0.67954647     1.574124       188.81018      107.5526       182.14336     -275.22822      431.63843     -118.88062      2.936505       27.490583      150.78416      3698789.8    
   2679000   300.53155      0.89582532     0.67651248     1.5723378      188.69627      107.59637      182.13103     -255.22963      51.108104     -26.601411      96.987921     -8.292083       321.02424      3697812.5    
   2680000   300.31697      0.89518567     0.67893911     1.5741248      188.64881      107.52537      182.08456      67.79835       78.564391      15.981576     -25.730172      43.169102      63.70314       3693500.3    
   2681000   299.69803      0.89334074     0.67868751     1.5720282      188.76078      107.57366      182.15424     -161.60738     -408.95776     -319.46355      2.6420823      134.6818       217.28057      3698767.1    
   2682000   300.56474      0.89592423     0.67761241     1.5735366      188.70257      107.63732      182.1179      -149.30385      85.118994      117.22452     -46.344699      118.75083      235.47241      3699076.7    
   2683000   299.92195      0.89400821     0.67790069     1.5719089      188.77067      107.60262      182.07484      1.5561618      234.7129      -40.264366     -162.81996     -30.887618      244.32214      3698344.1    
   2684000   300.41469      0.89547695     0.6770272      1.5725042      188.76678      107.60002      182.09621     -32.758366      296.41759     -32.132512      195.99692     -38.380968      168.292        3698612.4    
   2685000   299.9956       0.89422774     0.68005034     1.5742781      188.79082      107.58824      182.16194      282.01068      150.08876     -148.93562     -28.962531      2.6964544      59.194753      3700013.4    
   2686000   299.99705      0.89423207     0.67879852     1.5730306      188.71202      107.56122      182.03442     -225.40451      37.455713     -127.88581      183.95868     -132.79462      171.82144      3694951.9    
   2687000   300.04224      0.89436676     0.67653476     1.5709015      188.73401      107.59027      182.0577       256.67692      160.29331      165.87767     -44.894683      136.90513      227.67267      3696853.4    
   2688000   300.38704      0.89539454     0.67996257     1.5753571      188.85888      107.61087      182.15493     -85.849415     -361.53266      95.828972     -32.219592      6.2127527      291.45342      3701983.6    
   2689000   300.28692      0.8950961      0.67767204     1.5727681      188.81581      107.60124      182.21243     -249.95978      127.57905      48.843119     -6.2916143     -73.259501      291.26293      3701976.1    
   2690000   299.51821      0.89280472     0.67586678     1.5686715      188.73293      107.58139      182.10999     -269.86538     -14.162878     -1.3375803      124.91062     -193.81759      76.825088      3697588.8    
   2691000   300.09305      0.89451823     0.67820584     1.5727241      188.74089      107.59428      182.00065      69.266386      18.837703      240.53845     -57.615711      83.667428      235.98128      3695967.3    
   2692000   299.84764      0.89378671     0.68169842     1.5754851      188.78913      107.61526      182.137        317.73795     -326.3114      -60.689405      22.687391      62.1121        166.67749      3700403.1    
   2693000   299.85638      0.89381276     0.67844015     1.5722529      188.73291      107.58271      182.12752     -132.04447     -36.53961      -43.904816     -90.500908      46.20373       264.31459      3697989.3    
   2694000   299.791        0.89361788     0.68001999     1.5736379      188.77092      107.56839      182.15124     -132.81161      207.29973     -120.65523     -82.566673      26.603042      283.83528      3698723.6    
   2695000   299.9316       0.89403698     0.6782633      1.5723003      188.77644      107.56011      182.01254     -41.333922     -174.61152      55.707591     -0.18604232    -44.831154      288.63364      3695731      
   2696000   300.46397      0.89562385     0.67683278     1.5724566      188.79436      107.54662      182.06446     -16.961523      101.86163     -249.0493      -185.49683      152.15112      218.21727      3696672.5    
   2697000   299.89538      0.893929       0.67894413     1.5728731      188.79625      107.57801      182.14362      225.92274     -430.479        72.146269      38.554458     -86.940728      243.3183       3699395.9    
   2698000   299.9203       0.89400328     0.68088263     1.5748859      188.80501      107.57403      182.20672      312.39114      72.98818       119.63497      12.529634      116.42236      263.74622      3700712.4    
   2699000   300.18785      0.89480079     0.67908695     1.5738877      188.68385      107.6188       182.09267     -240.04961      0.37566567     180.43769      11.335093      103.89504      378.47391      3697560.8    
   2700000   300.30975      0.89516415     0.67887015     1.5740343      188.76143      107.599        182.16132      405.74473      127.27364     -64.115668     -33.255602      134.94814      300.30439      3699795.1    
   2701000   300.30277      0.89514334     0.67776857     1.5729119      188.74698      107.5278       182.11209      6.6965546      262.38207      38.239093     -99.026626     -43.237315      272.70287      3696064.4    
   2702000   299.83735      0.89375603     0.67906508     1.5728211      188.79176      107.58344      182.14847     -137.31463     -149.11732     -102.31959     -75.402927     -45.987558      195.08891      3699593.5    
   2703000   299.80624      0.89366331     0.67902595     1.5726893      188.78181      107.54999      182.11732      66.839727     -72.92478      -21.322913      52.282043      63.267966      317.12982      3697615.8    
   2704000   300.49156      0.8957061      0.67913948     1.5748456      188.8801       107.54059      182.15734     -239.38722      508.67412      115.14914     -51.287975     -42.366002      248.21838      3700030.5    
   2705000   299.46438      0.89264428     0.68195024     1.5745945      188.83753      107.56581      182.18364      65.103213      226.92127      160.03714      87.3542        97.22696       128.45267      3700598.3    
   2706000   299.89811      0.89393714     0.68073429     1.5746714      188.85623      107.52861      182.14482      81.712781      15.850671      155.34021     -25.2816        233.42927      177.6393       3698896.4    
   2707000   300.44754      0.8955749      0.67798772     1.5735626      188.78339      107.53079      182.02789      408.78472      331.47367      75.39598       148.26876      48.524592      297.99774      3695171.3    
   2708000   299.83659      0.89375377     0.67743208     1.5711858      188.72789      107.57625      182.12844     -60.113541     -53.952208     -288.26287      259.44912     -37.955377      257.74405      3697688      
   2709000   299.92267      0.89401034     0.67823435     1.5722447      188.9187       107.59872      182.18466      1.133593      -75.987963     -287.02985     -144.88811     -84.120119      184.80114      3703342.4    
   2710000   300.2342       0.89493896     0.67734689     1.5722859      188.79106      107.64072      182.1138      -265.30386     -425.87303      102.33888      36.913557     -79.520791      267.6308       3700844.8    
   2711000   300.41444      0.89547624     0.67766092     1.5731372      188.7636       107.60392      182.04351      166.38486     -161.11028     -56.509725      114.21689     -6.4206952      351.25216      3697613.6    
   2712000   300.26809      0.89503998     0.67952536     1.5745653      188.7382       107.6051       182.11154     -192.19156      22.163611      13.410416     -20.269457      141.78013      304.86104      3698538.5    
   2713000   300.97076      0.8971345      0.67670822     1.5738427      188.79191      107.55796      182.11094      145.44948     -80.755824     -32.575688      81.244551      49.015239      314.41874      3697957.9    
   2714000   300.73056      0.89641851     0.68001507     1.5764336      188.83547      107.55338      182.05268      195.15989      1.2476037      53.600365     -40.384592      48.871623      347.71559      3697470.4    
   2715000   299.73379      0.89344734     0.67932685     1.5727742      188.8865       107.5455       182.15367      97.776977     -130.245        205.05129      36.430408      11.84833       253.85613      3700250.2    
   2716000   300.86659      0.896824       0.67901755     1.5758416      188.89473      107.57461      182.11488      91.317453      440.71623      75.070857      2.5929798     -113.37304      236.44311      3700625      
   2717000   300.34165      0.89525924     0.67819164     1.5734509      188.74116      107.57119      182.10261     -89.710293     -102.57799     -149.1318       21.509881     -89.009416      162.55411      3697249.7    
   2718000   299.75515      0.89351102     0.67994355     1.5734546      188.72219      107.56472      182.28066     -424.90427     -129.79128     -204.1481       104.52832     -93.518353      223.92806      3700270      
   2719000   299.79639      0.89363395     0.67919858     1.5728325      188.89882      107.60075      182.15648     -446.25699     -148.60648      12.317328      182.91137     -66.756285      229.21726      3702450      
   2720000   299.94851      0.89408737     0.67707206     1.5711594      188.82741      107.57222      182.07459      149.93195     -25.914034     -15.544272     -45.895624      66.060774      267.11722      3698405.3    
   2721000   300.53678      0.8958409      0.67721519     1.5730561      188.83256      107.58073      182.14013     -154.31699     -134.79347     -145.69498     -7.8209362     -85.200569      276.97068      3700130.2    
   2722000   299.51287      0.89278883     0.67914623     1.5719351      188.75962      107.56779      182.1426       287.79772     -42.86296       158.7981      -75.395886      52.617007      200.48119      3698306.2    
   2723000   299.99384      0.89422249     0.67967902     1.5739015      188.82343      107.56752      182.12035     -54.213599     -183.66627     -146.24494     -67.855194      12.526555      376.65657      3699095.3    
   2724000   299.60847      0.89307378     0.67943696     1.5725107      188.82576      107.54755      182.06944     -139.62219      148.7607       258.96198     -65.633324     -84.406426      263.55597      3697420.4    
   2725000   300.07169      0.89445456     0.67891573     1.5733703      188.75694      107.53028      182.04632      209.93211      352.3763      -37.057933      3.2273384      171.55798      279.54369      3695009.7    
   2726000   300.11348      0.89457912     0.67819929     1.5727784      188.72703      107.61398      182.19817      76.400647     -383.48935      64.125092      200.52509      14.241744      193.73488      3700384.1    
   2727000   299.96431      0.89413447     0.67740932     1.5715438      188.78941      107.5715       182.08545      43.585916      143.22485      270.05735     -61.77357      -64.419583      161.84888      3697857      
   2728000   299.57064      0.89296101     0.67739657     1.5703576      188.7807       107.5545       181.92994      127.4313       229.0522      -4.9182183     -77.983307      36.368661      270.09671      3693944.3    
   2729000   300.12697      0.89461934     0.68180206     1.5764214      188.79474      107.58722      182.12397      59.353884     -25.592632      38.946543      47.059978      56.372822      207.40613      3699284.1    
   2730000   300.46467      0.89562594     0.68051028     1.5761362      188.79508      107.62001      182.14976      148.03539     -196.78652     -18.287876     -139.0814       101.98282      306.50202      3700942.1    
   2731000   299.36875      0.89235922     0.67872798     1.5710872      188.71917      107.61844      182.09724      76.574333     -111.46717     -29.415308      14.993278      102.89121      145.98096      3698333.3    
   2732000   300.41422      0.89547558     0.67989433     1.5753699      188.76521      107.61894      182.18409      35.713593      297.93763      78.892685      104.18806      88.499759      293.77714      3701017.3    
   2733000   299.81062      0.89367636     0.68003271     1.5737091      188.70847      107.57921      182.01436      29.913518      262.55572      40.046274     -71.681401      70.956571      263.61483      3695093.1    
   2734000   300.27804      0.89506964     0.68109789     1.5761675      188.73845      107.60522      182.15019     -79.082157     -136.87579      69.059388      40.463285      127.50676      304.02622      3699332.3    
   2735000   299.76334      0.89353543     0.67815908     1.5716945      188.78367      107.60257      182.06369     -326.04172     -370.68622     -50.494289      95.948293      56.14243       228.06833      3698370.6    
   2736000   299.48309      0.89270004     0.67945842     1.5721585      188.746        107.60102      182.12181      82.538034      6.4835984      11.129971     -71.43243      -9.2016647      282.909        3698759.4    
   2737000   300.32668      0.89521464     0.67873531     1.57395        188.80399      107.60184      182.26672      303.80278     -204.99374     -177.93773      192.82569      230.0799       274.92043      3702868.1    
   2738000   299.80887      0.89367115     0.67875512     1.5724263      188.82954      107.64033      182.16571     -107.48917      14.407439      140.23465      57.45159      -0.35966416     226.08923      3702640.8    
   2739000   299.71126      0.89338018     0.68047249     1.5738527      188.85772      107.60218      182.26112      7.1841732     -89.996472     -42.916733     -48.957761      148.8088       4.0062571      3703819.7    
   2740000   300.76302      0.89651526     0.67752999     1.5740453      188.74893      107.59156      182.23667      118.12646      150.56029      27.296306      67.036683      15.615279      182.59582      3700824.5    
   2741000   299.43693      0.89256247     0.68010996     1.5726724      188.81641      107.62055      182.09461      39.547308     -174.9476       219.68162     -163.13986      68.288739      235.66277      3700258.4    
   2742000   299.5794       0.89298712     0.67876594     1.5717531      188.78646      107.58258      182.17669     -156.55204      338.37031     -50.833724      66.351803     -127.53949      286.43926      3700033.3    
   2743000   300.51188      0.89576668     0.68024955     1.5760162      188.74327      107.56081      182.07064      444.11993      99.838575      40.51101       60.621583      96.45401       339.28005      3696285      
   2744000   300.11789      0.89459226     0.67878101     1.5733733      188.74945      107.62555      182.14392      9.0771674     -189.03486      203.87338      41.959054      71.015472      214.85209      3700119.5    
   2745000   300.01363      0.89428148     0.68027336     1.5745548      188.83331      107.5956       182.21294     -24.329383      220.00518     -204.01701     -95.507617      49.666995      218.34716      3702135.8    
   2746000   300.27668      0.8950656      0.68097062     1.5760362      188.79126      107.63738      182.0833      -119.77988      53.4577        58.564976      69.548263     -73.706404      210.12447      3700114      
   2747000   300.49337      0.89571149     0.67908743     1.5747989      188.84554      107.60926      182.17866     -67.746771      139.95769      178.47522      279.57981     -88.138663      272.85571      3702149      
   2748000   300.17166      0.89475256     0.67886422     1.5736168      188.80843      107.59842      182.02614      47.641612      88.237869     -11.050243     -116.57367      34.144164      288.14861      3697950.1    
   2749000   299.91669      0.89399251     0.67879299     1.5727855      188.86471      107.56302      182.12381     -61.437439     -114.19924      49.824558     -156.33938     -48.965446      207.02846      3699819.5    
   2750000   299.4501       0.89260172     0.68113133     1.5737331      188.76707      107.59129      182.1839       22.066576      87.47455      -104.46881     -182.22665      130.69479      128.39373      3700099.1    
   2751000   300.149        0.89468501     0.67725841     1.5719434      188.7692       107.57577      182.19992     -309.70873      38.27543      -221.78216     -74.803197      32.073992      168.1528       3699932.3    
   2752000   300.18662      0.89479715     0.67972206     1.5745192      188.93897      107.60745      182.14525      26.605138     -226.00114      12.544236     -30.652463      89.644728      232.0665       3703239      
   2753000   299.6804       0.89328818     0.68007337     1.5733616      188.70537      107.57583      182.08401     -368.24913     -106.76219      131.8267       67.46338       168.75345      210.11752      3696330.4    
   2754000   299.75094      0.89349845     0.6791278      1.5726263      188.81385      107.56897      182.07402      49.511192      68.868924      157.85994      116.9405       37.997904      365.3508       3698016.8    
   2755000   299.56071      0.89293142     0.67861335     1.5715448      188.75255      107.57643      182.19523     -1.3721791      163.88487      94.014182      79.526703      69.77209       312.94068      3699533.6    
   2756000   298.90076      0.89096425     0.67839649     1.5693607      188.7446       107.58891      182.2248      -439.65387     -365.95696     -300.2254       298.4409      -142.31878      175.3545       3700407.2    
   2757000   300.31919      0.89519229     0.67759819     1.5727905      188.79751      107.59131      182.1343      -161.43784      386.32408     -158.38267     -114.47766     -84.072942      325.52138      3699688.7    
   2758000   300.02639      0.89431952     0.67764423     1.5719637      188.75535      107.57704      182.00821     -168.29224      160.05026      250.96014     -100.50484      82.17982       239.8462       3695811.6    
   2759000   299.97506      0.89416651     0.68054777     1.5747143      188.87073      107.65008      182.16456      90.030705     -53.567839      19.832165      13.662109      98.121682      130.83833      3703760.6    
   2760000   300.03929      0.89435796     0.67980233     1.5741603      188.75244      107.64721      182.27193     -44.245841     -103.50946      81.54671      -69.524257      188.11241      161.1755       3703523.8    
   2761000   300.25381      0.89499741     0.67811892     1.5731163      188.74971      107.60596      182.10015      340.40505      137.371       -147.65003      106.03242      127.88799      197.74939      3698561.9    
   2762000   299.276        0.89208277     0.6779901      1.5700729      188.77982      107.63521      182.23857      184.11972     -308.78446     -151.6596       102.77107      202.8323       142.46094      3702970.4    
   2763000   300.74544      0.89646286     0.68032712     1.57679        188.80966      107.62002      182.24681      57.114028     -313.20464      19.900117      63.528111     -6.6994773      183.85276      3703200.3    
   2764000   299.61323      0.89308797     0.67944692     1.5725349      188.79042      107.60149      182.08288     -0.080580537    290.1728       4.3116155      4.7059592     -70.497803      172.88982      3698855.4    
   2765000   300.56952      0.89593848     0.67680759     1.5727461      188.81465      107.61519      182.18766     -254.20974      117.75761      65.541757     -102.90136      139.4808       161.03511      3701930.2    
   2766000   300.2728       0.89505402     0.67953178     1.5745858      188.74731      107.63378      182.18572     -61.393484     -149.09655      40.942104      108.44515      87.243581      300.11003      3701209.8    
   2767000   299.85284      0.89380221     0.67839533     1.5721975      188.72149      107.62385      182.17322     -336.81154     -529.56344     -79.951816     -251.80785      140.01296      192.09351      3700108.1    
   2768000   300.05769      0.89441282     0.67893837     1.5733512      188.85998      107.62521      182.15378      100.41889     -292.63544      66.081436      140.83344     -43.040645      220.01812      3702475.1    
   2769000   300.39112      0.8954067      0.68141347     1.5768202      188.76821      107.62398      182.316        418.32067      107.77288      120.45255     -333.224        27.963009      185.87667      3703929.3    
   2770000   300.27702      0.89506659     0.6800427      1.5751093      188.81237      107.62348      182.19105     -203.65618     -73.500718     -83.83692      -8.3987676     -3.5532826      198.1521       3702239.7    
   2771000   300.24305      0.89496534     0.67865607     1.5736214      188.77932      107.60018      182.25477     -50.331427     -86.281203      59.222029      114.55125      50.427798      343.2364       3702084.4    
   2772000   300.05885      0.89441627     0.67948647     1.5739027      188.80309      107.60642      182.11149     -123.31057     -279.26324      164.86969      166.26879      119.70206      219.49866      3699854.3    
   2773000   299.88526      0.89389885     0.67963411     1.573533       188.80671      107.58569      182.1994       160.19953     -169.6801       82.832647     -183.06552     -133.9535       240.63812      3700998.2    
   2774000   299.82265      0.89371221     0.67865472     1.5723669      188.77443      107.60921      182.15697     -218.58583      94.866982      152.18708     -157.84298      33.530065      398.59601      3700312.5    
   2775000   300.09505      0.8945242      0.67881844     1.5733426      188.7162       107.59762      182.26919      160.81306     -14.923411     -23.454844      29.391129     -36.534759      114.21125      3701051.3    
   2776000   300.69089      0.89630026     0.68097419     1.5772745      188.78622      107.58733      182.25188      69.4096       -31.849548      75.829095     -205.22415      0.30315855     249.959        3701718.9    
   2777000   299.89765      0.89393576     0.67928792     1.5732237      188.75732      107.61672      182.12807     -159.94978     -177.59031     -69.17882      -52.220199      22.910923      266.74648      3699648.1    
   2778000   300.18901      0.89480425     0.68014474     1.574949       188.82784      107.60785      182.12448      160.46874      68.149669      68.86966       35.146035     -72.590814      148.304        3700652.3    
   2779000   300.01423      0.89428328     0.68005656     1.5743398      188.72583      107.60627      182.2338      -48.14618       239.94139      7.2806484      203.21396     -2.9414728      293.10993      3700819.2    
   2780000   300.01714      0.89429194     0.67932829     1.5736202      188.83346      107.57077      182.27109     -386.76791     -9.225143      -16.708404      104.53511      57.364764      320.64394      3702465.4    
   2781000   299.12131      0.89162164     0.68034        1.5719616      188.83997      107.59322      182.1935      -86.586383     -365.53349     -30.160447     -0.095060073    37.206464      294.95448      3701789.4    
   2782000   299.82338      0.89371438     0.67862448     1.5723389      188.7612       107.61053      182.11952     -53.616686     -23.462874      11.198696      41.712526     -3.6442408      194.45012      3699338      
   2783000   299.67131      0.89326111     0.67757601     1.5708371      188.72192      107.6232       182.15812     -85.135721     -88.223791      13.848409      171.48586      72.597538      262.8138       3699787.4    
   2784000   299.16866      0.8917628      0.67806033     1.5698231      188.81044      107.62136      182.28385     -18.337047     -141.80586     -108.79702      62.481134      137.42828      308.45348      3704014.5    
   2785000   300.77646      0.89655534     0.68005153     1.5766069      188.78843      107.59602      182.18179     -48.299424      4.9998558     -20.490772     -13.567579     -4.9155613      183.70589      3700637.5    
   2786000   299.74777      0.89348901     0.68060851     1.5740975      188.73947      107.63406      182.18078     -72.505849      180.10859     -88.336724      139.40238      10.649328      250.10673      3700965.4    
   2787000   299.84682      0.89378426     0.67794397     1.5717282      188.76539      107.62135      182.22942     -122.97657      34.466846     -2.4805203      38.359372      86.697643      61.285664      3702024.6    
   2788000   300.64684      0.89616896     0.68013282     1.5763018      188.76848      107.65417      182.1709      -46.702324     -130.91258      169.67392     -184.88369      264.12885      205.43756      3702025      
   2789000   299.35466      0.89231722     0.68001856     1.5723358      188.7677       107.62164      182.1425      -199.35264     -53.968695     -15.271401     -166.14893      2.5624453      345.27208      3700314.1    
   2790000   300.02312      0.89430977     0.67991362     1.5742234      188.80435      107.6105       182.22886     -325.74997      196.92353     -11.259949     -133.72989      140.5327       128.65349      3702403.9    
   2791000   300.28648      0.89509481     0.67884611     1.5739409      188.83962      107.58371      182.18372     -24.65247       213.68342     -212.76128     -268.57686      265.64068      403.02722      3701256.7    
   2792000   299.30175      0.89215953     0.67957484     1.5717344      188.84796      107.60386      182.24594     -177.66385     -315.81702     -18.185323     -79.078013      94.142189      104.11825      3703377.8    
   2793000   300.31159      0.89516965     0.67917401     1.5743437      188.7609       107.62242      182.20672      170.28159     -61.895226     -116.93377      85.27542       56.222151      273.7877       3701512      
   2794000   300.16035      0.89471884     0.68035471     1.5750736      188.80898      107.67638      182.18526      32.910904     -299.76968     -94.49327       112.18326      54.158854      202.84964      3703874.9    
   2795000   300.80248      0.8966329      0.68006303     1.5766959      188.78094      107.61411      182.20031      321.33482      127.65832     -131.20686     -12.364459      109.36175      187.34131      3701488.9    
   2796000   299.38381      0.89240411     0.67771421     1.5701183      188.74566      107.63164      182.25997      82.615982     -188.43931      119.07404      173.42504      103.5592       249.48152      3702612.1    
   2797000   300.58741      0.89599181     0.68159429     1.5775861      188.79223      107.62488      182.20646     -185.83348     -76.776977      92.46238      -99.541892      121.16181      350.87039      3702205.9    
   2798000   299.70611      0.89336483     0.67783199     1.5711968      188.79168      107.55138      182.13917     -100.69273     -194.66709     -25.786283      6.1339667      119.7514       253.88393      3698300.6    
   2799000   299.62373      0.89311927     0.67933388     1.5724531      188.82805      107.59502      182.25706     -201.92344      343.31188     -134.2478      -16.551685     -61.720218      109.96203      3702909      
   2800000   300.30392      0.89514678     0.68088683     1.5760336      188.81622      107.64148      182.30517      170.43191      64.32647      -136.80038      17.636695      160.00352      262.68316      3705253.6    
   2801000   299.19458      0.89184006     0.67900892     1.570849       188.79425      107.65428      182.18091     -105.03233      200.07758     -3.3699406     -127.05303      150.00362      183.66487      3702737.4    
   2802000   299.71847      0.89340167     0.67966998     1.5730717      188.78448      107.65556      182.1646       19.619357      15.811271      57.320097     -7.8871681      129.05026      175.45169      3702258.6    
   2803000   299.63125      0.89314169     0.68023409     1.5733758      188.81268      107.60633      182.22712     -59.21887      -164.70262     -206.56769     -82.735957     -35.059642      180.25078      3702388.3    
   2804000   300.17692      0.89476821     0.68060993     1.5753781      188.84844      107.62283      182.26714     -15.118426     -0.75460428     72.561458      101.30995     -13.621535      210.763        3704470.7    
   2805000   299.89386      0.89392447     0.68204706     1.5759715      188.83568      107.61779      182.25124     -207.12497     -26.919989     -125.05667     -34.696577     -65.987099      147.30835      3703724      
   2806000   299.97835      0.89417633     0.67998479     1.5741611      188.76758      107.64778      182.25072     -25.017075      276.06524     -157.20366     -43.492376      33.743371      363.69493      3703409.4    
   2807000   300.15967      0.89471679     0.67805923     1.572776       188.8111       107.62815      182.23995      86.380184      159.16034      101.46942      102.99557     -49.102694      228.4878       3703369.2    
   2808000   299.87431      0.89386619     0.68041067     1.5742769      188.85219      107.63313      182.15238     -330.4579       88.154062     -5.5588535     -240.35028      120.929        219.77621      3702566.3    
   2809000   299.69881      0.89334308     0.68225233     1.5755954      188.9325       107.64779      182.28738     -327.36912      81.086748     -88.960318     -89.976902      115.26371      99.309334      3707390.9    
   2810000   299.59526      0.8930344      0.67905658     1.572091       188.72206      107.6388       182.2129      -306.40699     -168.83261      69.34097       20.946869      93.444537      245.23217      3701439.1    
   2811000   299.98861      0.89420692     0.68036175     1.5745687      188.73172      107.65153      182.26492      177.00981      255.5939       11.012006     -27.31172      -29.23636       256.04124      3703123.4    
   2812000   300.38266      0.89538149     0.67896432     1.5743458      188.8394       107.63503      182.14911      76.688602      16.662623     -83.729756      275.83412      137.53396      311.75468      3702314.4    
   2813000   300.53987      0.89585012     0.6790064      1.5748565      188.91209      107.64462      182.20583     -227.36234     -180.79806      70.967821     -17.212732      49.175134      90.072699      3705223      
   2814000   299.5931       0.89302797     0.67900884     1.5720368      188.89552      107.67749      182.16776     -81.94173       36.079447     -77.351747      128.33399     -8.4816847      181.63687      3705254.9    
   2815000   299.83821      0.89375859     0.68043372     1.5741923      188.87699      107.62589      182.09309     -161.53098     -389.13382     -32.295759     -116.84904      81.482926      216.92961      3701598.3    
   2816000   299.92265      0.89401028     0.6790828      1.5730931      188.77652      107.64877      182.19997      151.7074      -149.90203     -58.736025      94.024409      31.535598      307.25158      3702587.5    
   2817000   300.47135      0.89564586     0.68184994     1.5774958      188.83555      107.60871      182.18456     -274.29492     -57.234982     -100.47914     -39.999911      0.19432792     163.08935      3702054.2    
   2818000   300.29351      0.89511576     0.67942208     1.5745378      188.76039      107.64471      182.191        325.84832     -41.558554      86.521149     -69.708758      154.83195      201.94028      3701949.4    
   2819000   299.82078      0.89370664     0.67924699     1.5729536      188.76138      107.64059      182.28004     -13.075232      20.427236     -269.33711     -160.46091      135.07821      254.20431      3703636.2    
   2820000   300.17473      0.89476168     0.67902485     1.5737865      188.72342      107.6569       182.25872      20.45177       53.171123     -4.099927      -106.9182      -103.16823      191.92843      3703019.2    
   2821000   299.87697      0.89387412     0.68012031     1.5739944      188.84965      107.63541      182.11408      151.07925      94.362742      29.5895        161.03589      70.82094       249.06697      3701816.3    
   2822000   300.15674      0.89470807     0.67960792     1.574316       188.8121       107.63987      182.20876      131.85579      40.933615     -162.29123      65.606163      82.938002      53.621166      3703158.1    
   2823000   299.86537      0.89383954     0.68189943     1.575739       188.68848      107.61397      182.18204      282.8599      -59.192441     -41.876692      56.739103      151.37222      442.24223      3699300.3    
   2824000   300.24031      0.89495717     0.68126422     1.5762214      188.80327      107.61139      182.17521      62.357049     -166.08812     -123.31548      41.25132       60.288235      290.43007      3701323.5    
   2825000   299.47566      0.89267792     0.67965614     1.5723341      188.72054      107.59492      182.20501     -151.18718      373.18128     -1.2762527      129.30652     -12.752991      252.81027      3699740.1    
   2826000   300.10589      0.89455649     0.67968757     1.5742441      188.79901      107.62043      182.24927     -226.63701     -222.88057      60.838807      107.35423      93.96539       443.51899      3703055.7    
   2827000   300.29674      0.89512539     0.67999068     1.5751161      188.81415      107.58096      182.22406     -310.29476      56.371322      160.67106      269.16345      35.001962      354.33583      3701482.3    
   2828000   299.74338      0.89347592     0.67991029     1.5733862      188.85938      107.58024      182.18146      100.87212     -119.74169      63.088599      15.198655      190.78734      324.80281      3701478.6    
   2829000   299.43736      0.89256374     0.68175183     1.5743156      188.84335      107.63687      182.22019     -27.893276      88.961545     -90.940659     -344.61337      99.406771      161.25982      3703900.1    
   2830000   299.83998      0.89376386     0.67968356     1.5734474      188.85676      107.65284      182.27298     -271.31447     -113.95405     -111.0339       19.6407        77.630769      256.24636      3705785.7    
   2831000   300.02435      0.89431344     0.68063517     1.5749486      188.75687      107.61738      182.27792     -81.134534     -87.031935      116.71141     -84.21542       61.471787      243.22082      3702706.2    
   2832000   299.6832       0.89329654     0.68147534     1.5747719      188.76921      107.6125       182.108        175.97969     -60.623837     -78.515978      5.4786442      40.571946      90.499223      3699328.7    
   2833000   299.76982      0.89355473     0.67981087     1.5733656      188.87639      107.62407      182.18311     -173.97977      69.311673      69.065035      103.5746      -38.315967      274.48724      3703353.7    
   2834000   300.62255      0.89609654     0.67917932     1.5752759      188.80963      107.58787      182.15381     -81.271609     -84.206384     -2.3635268     -50.938197      83.701598      358.37967      3700204.4    
   2835000   300.74129      0.89645049     0.68029683     1.5767473      188.87274      107.59828      182.18508     -105.94932      254.76606     -124.74306     -93.122221      38.357199      171.2974       3702434.9    
   2836000   300.05103      0.89439297     0.6795647      1.5739577      188.7827       107.6352       182.12184     -241.63464     -242.93719     -64.465368     -92.690109      75.80951       236.39455      3700654.4    
   2837000   299.70034      0.89334763     0.67893863     1.5722863      188.90319      107.61062      182.22094     -4.905652       21.37813      -66.069393      49.354773     -15.827409      140.28896      3704185.4    
   2838000   300.72217      0.89639349     0.67876041     1.5751539      188.67391      107.64813      182.18365      9.2354992      176.4874      -148.46475      110.59186      48.972891      231.55295      3700221.4    
   2839000   299.78597      0.89360288     0.67975738     1.5733603      188.67108      107.67542      182.14156      287.53692      46.084667      114.46755      65.362774      82.332741      109.98364      3700249      
   2840000   300.1542       0.8947005      0.67975166     1.5744522      188.75893      107.63345      182.21085     -50.852002      107.14805     -27.287162      12.827184      36.794583      287.00144      3701936.7    
   2841000   300.31537      0.89518092     0.67936137     1.5745423      188.85962      107.58062      182.10835      22.649648      129.50573      38.034254      53.554288      163.00234      211.38444      3700011.2    
   2842000   300.10032      0.89453989     0.68113719     1.5756771      188.88731      107.6189       182.17142      34.490944      97.91716       140.53727     -90.693929      68.54012       66.626053      3703152.3    
   2843000   299.70857      0.89337216     0.67924214     1.5726143      188.75884      107.64609      182.18805      163.85808     -197.15774      61.954145      121.98582     -41.560136      269.57666      3701906.4    
   2844000   300.23773      0.8949495      0.67948283     1.5744323      188.77059      107.64493      182.15617     -13.945203      251.32847     -55.3939       -40.2591        97.260301      259.76702      3701449.5    
   2845000   300.07085      0.89445206     0.6818645      1.5763166      188.76824      107.6398       182.22518      224.17211      33.26589      -48.053383     -360.4753       107.18961      239.18304      3702629.1    
   2846000   300.48113      0.89567501     0.67960546     1.5752805      188.74848      107.69038      182.17352      2.7946192     -419.37677     -199.32529      144.38972     -13.790189      197.22629      3702931      
   2847000   299.94605      0.89408005     0.67838711     1.5724672      188.70851      107.63451      182.16419      216.36451     -85.214131     -89.757616     -123.09864      180.5467       290.12472      3700036.8    
   2848000   299.60046      0.8930499      0.68037784     1.5734277      188.73834      107.62111      182.09218      88.177262      199.21905      63.955317      170.06272      142.61348      272.59035      3698698.2    
   2849000   300.21925      0.8948944      0.67953905     1.5744334      188.66614      107.67465      182.15066      138.45791     -52.526351     -28.880392      72.179506      50.58156       299.85336      3700310.8    
   2850000   299.69503      0.8933318      0.68171463     1.5750464      188.75039      107.62441      182.19016      10.361318      24.303973      7.6880235      184.06764      26.382119      164.03182      3701038.2    
   2851000   299.89298      0.89392185     0.67983745     1.5737593      188.74247      107.66685      182.24535      58.150606      169.56749     -43.221348      83.074084      123.33193      291.37753      3703463.7    
   2852000   299.88835      0.89390807     0.68111478     1.5750228      188.81083      107.61464      182.19915      110.51602      327.18186      20.314269     -14.666767      8.9704123      140.53212      3702069.6    
   2853000   299.70778      0.89336981     0.67695712     1.5703269      188.87389      107.61328      182.11267     -169.61113     -67.283171     -184.44347      28.724236      129.64484      303.41191      3701501.7    
   2854000   299.85431      0.8938066      0.67956198     1.5733686      188.76846      107.61915      182.20663     -285.31882      51.799956      121.31194      48.632024      14.906934      223.47149      3701545.9    
   2855000   300.15289      0.89469659     0.6806293      1.5753259      188.70472      107.60492      182.16898      217.85346      403.69398     -128.8177       144.99888      54.763058      335.42127      3699042.4    
   2856000   300.26687      0.89503635     0.67905625     1.5740926      188.74412      107.61871      182.11661     -253.34597      122.85897      60.146383      212.22463      112.11018      138.28622      3699225.2    
   2857000   300.2982       0.89512972     0.68011186     1.5752416      188.8091       107.63887      182.17476     -324.16293     -210.53126     -226.49089      60.53163       48.851374      337.16148      3702373.8    
   2858000   299.2761       0.89208306     0.67930476     1.5713878      188.80335      107.6063       182.26602     -88.456764     -87.192427     -86.129015      31.645976      58.646452      217.40396      3702994.8    
   2859000   299.97228      0.89415824     0.67923337     1.5733916      188.74099      107.65638      182.25857      152.48833     -3.0595583      24.822229      200.04071      76.890095      273.36144      3703343.2    
   2860000   299.589        0.89301574     0.67924809     1.5722638      188.69276      107.67411      182.21062      2.9371554      313.26488      149.52047      3.5954201      102.55226      159.14912      3702032.6    
   2861000   299.83128      0.89373795     0.68045346     1.5741914      188.77183      107.66534      182.21141      83.119711      24.939103      40.792589     -202.32715      0.34630655     273.30672      3703298.1    
   2862000   300.54455      0.89586405     0.68187923     1.5777433      188.76221      107.69752      182.21921     -75.424996      192.72869     -20.375934      72.918151      134.83513      31.878069      3704374.7    
   2863000   300.68582      0.89628516     0.68074418     1.5770293      188.72176      107.65274      182.21368      435.70063      119.25093      253.18975     -242.38119      13.645705      287.08918      3701928.6    
   2864000   300.05318      0.89439937     0.6806037      1.5750031      188.83897      107.63855      182.25602      194.8667      -53.985449      89.966839     -251.67593      30.304576      187.15013      3704600.1    
   2865000   299.63154      0.89314256     0.68100832     1.5741509      188.75415      107.6267       182.24513      91.830252      65.987155     -17.042148     -57.839519      39.494257      170.96412      3702307.4    
   2866000   299.94622      0.89408055     0.68007426     1.5741548      188.76637      107.65698      182.15059      152.8322       51.052316     -131.37993     -101.10722      30.137251      55.306968      3701667.6    
   2867000   300.24293      0.89496498     0.68057331     1.5755383      188.84141      107.66755      182.17729     -400.32815      51.595967      38.565008      172.49586      118.38734      244.7023       3704045.4    
   2868000   300.26472      0.89502994     0.6802205      1.5752504      188.87646      107.6004       182.20931     -229.73408      232.4783      -53.447491      116.79431     -5.7965564      175.29326      3703073      
   2869000   299.97571      0.89416846     0.68330957     1.577478       188.76047      107.65853      182.26933      46.850434      103.3982      -115.59726     -107.08389      79.50525       179.37348      3704017.9    
   2870000   300.2363       0.89494522     0.68142131     1.5763665      188.73369      107.67034      182.1949       70.531821      23.930758      160.72445     -33.105583      54.325017      190.10446      3702386.4    
   2871000   299.12353      0.89162829     0.67987538     1.5715037      188.77103      107.66033      182.17389      90.338334     -230.95042      41.646251      95.148866     -15.345774      286.19639      3702347.4    
   2872000   299.54812      0.89289388     0.67902325     1.5719171      188.73909      107.66843      182.16202      184.16999      467.42549      0.21450809    -12.639158      9.0688778      225.04634      3701758.3    
   2873000   299.53245      0.89284719     0.67944176     1.572289       188.79929      107.66257      182.24567      5.8861115     -429.62202     -58.258124     -93.634916      71.661347      222.75041      3704437.8    
   2874000   300.40906      0.89546018     0.68096427     1.5764244      188.82859      107.67317      182.19723     -295.46545     -11.077996      139.24554     -138.44681      0.1625628      221.93814      3704392.7    
   2875000   300.03286      0.8943388      0.68025424     1.574593       188.69665      107.66204      182.23104      78.578621     -97.970342     -184.87776     -268.91523      122.99771      243.48813      3702108.8    
   2876000   300.02269      0.89430849     0.68213829     1.5764468      188.68497      107.6917       182.21121      150.66506     -125.26501     -26.473172      68.978349      71.82038       261.72698      3702496.4    
   2877000   300.05317      0.89439936     0.68156853     1.5759679      188.80126      107.66073      182.18586     -75.934215      317.20503      147.80229      458.66619      102.33952      364.09253      3703197.6    
   2878000   300.22123      0.89490031     0.68166051     1.5765608      188.80911      107.61777      182.18321     -28.854431      244.37603     -71.546424     -16.098041      180.75642      197.18313      3701820      
   2879000   300.01836      0.89429558     0.68225667     1.5765523      188.85852      107.61764      182.23075      353.73836      17.007899      53.70531      -274.55103     -115.11897      255.50938      3703750.4    
   2880000   299.9302       0.8940328      0.67936484     1.5733976      188.72085      107.63151      182.22388      40.496199      367.55477      85.619398      22.574405      176.5254       112.98059      3701388      
   2881000   299.91359      0.89398328     0.68068657     1.5746698      188.64364      107.68623      182.15564     -2.6992042     -366.11342     -128.42385      116.12558      196.2842       148.72241      3700368.3    
   2882000   300.01443      0.89428386     0.67934103     1.5736249      188.85129      107.68458      182.27342     -208.06947      119.88843     -42.608232      57.962908      35.083954      305.68894      3706780      
   2883000   299.65803      0.89322151     0.68103482     1.5742563      188.84769      107.64868      182.25405      168.20671      369.27185     -67.713272      193.51776      1.1455599      233.3376       3705079.9    
   2884000   299.38501      0.8924077      0.68043177     1.5728395      188.80634      107.65489      182.32055     -208.1521      -47.334624     -197.30876      54.620644      85.348166      319.5573       3705833.7    
   2885000   299.62086      0.89311071     0.68164534     1.574756       188.77226      107.65914      182.18459     -148.42749     -0.40461464    -116.79118     -12.251107      112.14691      327.15272      3702548.3    
   2886000   300.04965      0.89438887     0.67982623     1.5742151      188.7804       107.67422      182.23569      74.923827     -71.298374      79.064559     -8.7211798      134.19028      424.97945      3704265.4    
   2887000   300.1643       0.89473061     0.67979158     1.5745222      188.80979      107.69124      182.22791      17.970186     -9.3729332     -10.583713      61.349957      127.72916      128.14696      3705269.4    
   2888000   300.04845      0.89438528     0.68123348     1.5756188      188.82647      107.66223      182.22765      26.367025      363.34023      47.912421     -40.918854     -1.3397728      200.91014      3704593      
   2889000   299.70585      0.89336404     0.68074733     1.5741114      188.82169      107.64745      182.28884      101.1381       143.44993     -43.885649     -153.75394     -18.618721      355.8627       3705234.6    
   2890000   300.50965      0.89576004     0.6815457      1.5773057      188.84951      107.62655      182.27977      145.63694     -208.50095      3.9201813     -86.643092      28.065824      220.35084      3704876.7    
   2891000   299.88538      0.89389919     0.67983738     1.5737366      188.84746      107.62638      182.2651      -8.2165317      348.63918     -36.472627     -67.452219      113.74969      354.81773      3704532.3    
   2892000   299.70906      0.89337363     0.67899739     1.572371       188.7199       107.58594      182.29154     -325.04056     -60.247724     -167.14405     -227.9132      -86.61955       271.53309      3701176      
   2893000   300.495        0.89571636     0.67956967     1.575286       188.81349      107.63589      182.36116      25.344553      79.200692      100.16338      162.73838      126.9307       363.56405      3706145.7    
   2894000   300.24264      0.89496411     0.68005357     1.5750177      188.79448      107.68342      182.2835       112.13331     -267.87133     -20.189952     -209.26151      149.53134      243.40364      3705830.2    
   2895000   299.83361      0.89374488     0.67883736     1.5725822      188.80166      107.68118      182.19422     -291.98189      114.02892      97.849597      122.45667      21.413735      385.2757       3704078.5    
   2896000   300.37168      0.89534877     0.6789078      1.5742566      188.76286      107.71472      182.23143      228.89821      18.748737     -26.390489     -59.980843      61.663685      172.66383      3705227.5    
   2897000   300.30254      0.89514268     0.68025036     1.575393       188.77218      107.66883      182.22966     -14.554477      134.10659      137.58141     -151.90218      36.075663      272.09669      3703795.8    
   2898000   300.3437       0.89526535     0.68106852     1.5763339      188.86515      107.65091      182.1688       11.059542     -91.518288      40.646207     -168.72672      43.236571      310.0586       3703765.8    
   2899000   300.22978      0.89492579     0.67959393     1.5745197      188.86521      107.68347      182.16559      256.48227      260.99668      47.886243     -46.255946      189.40153      283.6025       3704822.1    
   2900000   299.83651      0.89375354     0.68167763     1.5754312      188.84087      107.66506      182.32809      26.172018     -109.28581     -116.01736      139.87633      132.8135       269.46001      3707014.9    
   2901000   299.94816      0.89408634     0.68125415     1.5753405      188.76644      107.64833      182.3179      -46.470817      30.510619      89.05838       25.593215      73.751155      293.07311      3704771.1    
   2902000   299.69095      0.89331965     0.68069733     1.574017       188.79725      107.64         182.29835     -192.52151      84.589766     -107.19814      0.58571011     132.70664      157.61973      3704691.8    
   2903000   299.24892      0.89200205     0.68053775     1.5725398      188.89817      107.69013      182.26202     -144.65375      118.75346      43.607201      63.223791      223.62484      119.5156       3707659.3    
   2904000   300.18202      0.89478343     0.68039176     1.5751752      188.83119      107.66258      182.22075     -157.38533      29.90267      -32.51895      -58.215388      84.187117      316.96298      3704557.7    
   2905000   300.09074      0.89451132     0.67974245     1.5742538      188.82023      107.62331      182.30073     -53.927521     -31.341218     -155.07448     -2.132485       253.00974      203.1273       3704616.9    
   2906000   300.15625      0.89470662     0.68389032     1.5785969      188.84105      107.61698      182.28291      12.476103     -53.227156      7.3346394     -22.877108      101.22526      178.56653      3704445      
   2907000   300.05538      0.89440593     0.68211223     1.5765182      188.84536      107.67371      182.21104      58.284676      247.09319      431.4418      -93.320015      69.737268      260.07777      3705021.1    
   2908000   300.06951      0.89444804     0.67944264     1.5738907      188.75053      107.65823      182.2439      -66.913649     -6.7858376     -26.819727     -206.38584      171.86756      273.06584      3703295.8    
   2909000   300.11247      0.89457612     0.67919585     1.573772       188.8333       107.63585      182.22068     -55.127094     -190.82803     -22.992342      42.397555      143.2351       267.11994      3703677.9    
   2910000   300.64389      0.89616016     0.68091264     1.5770728      188.80477      107.64199      182.30439      122.00903      505.96832     -26.198316      80.554973      152.70812      249.35342      3705030.6    
   2911000   300.31629      0.89518364     0.68035735     1.575541       188.81192      107.66584      182.32955      57.545523     -76.785318      41.174159      70.842624      180.5159       199.30569      3706503.7    
   2912000   300.00496      0.89425565     0.68362567     1.5778813      188.79173      107.66544      182.27422     -61.757755      159.85281      197.34439     -30.903246     -33.11469       263.67616      3704968.4    
   2913000   300.07436      0.8944625      0.68112351     1.575586       188.79118      107.65514      182.19129      197.33619      113.3429       175.58171      86.618905     -36.233988      319.40167      3702918      
   2914000   299.70161      0.89335141     0.68009719     1.5734486      188.80016      107.63421      182.27205      222.65591      18.931521     -19.479139     -139.53295      124.87942      324.24721      3704015.3    
   2915000   299.81604      0.8936925      0.67879402     1.5724865      188.79771      107.64125      182.26605     -122.70181     -76.818036     -17.991961     -335.17398      96.02572       134.87715      3704087.4    
   2916000   299.78524      0.89360071     0.68275411     1.5763548      188.86727      107.58612      182.38088     -525.46231      9.3172601     -209.74207      82.112647      67.92052       252.96299      3705887.9    
   2917000   300.8055       0.89664189     0.6807011      1.577343       188.87584      107.65022      182.31224      40.978702      115.1929       92.790142     -9.9801917      124.12157      321.70144      3706868.2    
   2918000   300.34894      0.89528098     0.67905207     1.574333       188.77267      107.62762      182.25046     -14.951178     -1.188897      -80.594611      97.532947      124.22206      160.62305      3702810.6    
   2919000   299.74587      0.89348334     0.67865819     1.5721415      188.81551      107.67247      182.24379     -108.62837      38.631845     -178.1887       81.107391      285.41665      287.67828      3705058.7    
   2920000   299.66251      0.89323486     0.68170394     1.5749388      188.79661      107.70054      182.38408      73.349101      142.65278     -39.454892     -270.98014      30.893981      206.60947      3708506      
   2921000   300.10224      0.8945456      0.68405445     1.5786001      188.82945      107.70497      182.31325      231.8636      -24.53484      -118.19373      183.8425       116.96716      310.33843      3707863.3    
   2922000   300.4219       0.89549847     0.68017681     1.5756753      188.85326      107.66355      182.25868      21.477911     -24.626509     -81.109186     -76.963157      42.49062       315.30322      3705794.9    
   2923000   300.1228       0.89460691     0.68060929     1.5752162      188.7981       107.63357      182.16065      242.01036      224.97109      123.69373      101.86091      151.48554      389.54524      3701689      
   2924000   299.36058      0.89233487     0.68103439     1.5733693      188.87987      107.69052      182.28498     -169.486        209.1679       54.171271      169.45415      13.503945      236.14735      3707780.9    
   2925000   299.54932      0.89289746     0.67931201     1.5722095      188.70654      107.65193      182.21861      304.7836      -14.936743      138.99544     -76.559065      180.96195      202.38497      3701702.7    
   2926000   299.47085      0.89266356     0.67917334     1.5718369      188.74418      107.67495      182.27994     -194.04698     -119.7714      -77.058517     -123.21416      87.289229      181.64978      3704478.9    
   2927000   299.80716      0.89366603     0.68078067     1.5744467      188.76812      107.68538      182.25798      117.96805     -127.27676     -111.01585      206.03234      245.42523      314.40572      3704861.2    
   2928000   300.14842      0.89468326     0.6798561      1.5745394      188.73221      107.66922      182.24861      75.099464     -271.67151      1.0286588      99.059931     -41.816869      263.64902      3703410.4    
   2929000   300.39366      0.89541428     0.68120529     1.5766196      188.70647      107.66496      182.32968      410.39933      398.91426     -153.74999      122.17673      17.834936      256.73958      3704405.7    
   2930000   299.89623      0.89393154     0.68135821     1.5752897      188.77765      107.68523      182.20999     -150.27114     -134.08236     -0.41163108     133.78452      167.81198      435.62804      3704067.5    
   2931000   299.88047      0.89388457     0.68196624     1.5758508      188.80337      107.67798      182.23572      120.60235     -191.55529     -17.257945      127.12922      131.19516      321.01318      3704845.8    
   2932000   299.89927      0.89394059     0.68063974     1.5745803      188.76382      107.69547      182.24999     -179.22705     -368.30222     -57.764035      32.118032      4.6394861      294.6692       3704961.8    
   2933000   300.24422      0.89496882     0.68071373     1.5756826      188.95746      107.63232      182.19474     -355.44415     -5.6496394      57.350602      116.09899      42.677226      385.79947      3705464      
   2934000   300.722        0.89639299     0.67902634     1.5754193      188.74451      107.63986      182.32195      286.77629     -22.342806     -145.01978      152.01737      63.859581      156.1749       3704131.5    
   2935000   299.91973      0.8940016      0.68097891     1.5749805      188.81943      107.68936      182.24715      30.899215      163.6246       48.948803      33.119214      299.19543      294.05029      3705785.1    
   2936000   300.50198      0.89573716     0.68161037     1.5773475      188.80515      107.66052      182.27128     -38.430409      139.94038     -121.66653      161.79962     -100.04044      370.90394      3705003      
   2937000   300.06544      0.89443593     0.68381036     1.5782463      188.81534      107.69677      182.33519      93.907158     -8.4524525     -29.399843      170.75566      127.0371       339.86285      3707750.1    
   2938000   300.47132      0.89564577     0.68259365     1.5782394      188.80902      107.68874      182.23226      215.82201      201.54459      174.36435      142.13472      79.817461      22.730903      3705256.4    
   2939000   299.87092      0.8938561      0.68162277     1.5754789      188.77878      107.70436      182.24178     -180.67049     -58.818196     -51.930227     -26.145885      46.977389      367.10822      3705394.2    
   2940000   299.65832      0.89322239     0.68126375     1.5744861      188.74192      107.67786      182.3033       548.28079      244.9709       27.037456      165.35555      129.53691      321.61971      3705009.4    
   2941000   300.4866       0.89569131     0.67897838     1.5746697      188.76368      107.65007      182.35913      256.46408     -118.00413     -70.256432      199.57925      145.09319      299.78104      3705615      
   2942000   300.23146      0.8949308      0.68019516     1.575126       188.82322      107.71394      182.29746     -55.888335      38.723283      64.600971      115.02668      198.73084      303.30138      3707728.6    
   2943000   300.46084      0.89561453     0.67973727     1.5753518      188.8557       107.69026      182.31147      14.059236      58.628459      106.69538      49.352611      65.109814      236.71283      3707836.3    
   2944000   299.91249      0.89398        0.68265398     1.576634       188.74323      107.69079      182.29208      39.321158     -296.41141      142.21434      274.03678      160.16353      303.33353      3705252.1    
   2945000   300.2765       0.89506504     0.67755107     1.5726161      188.78692      107.68286      182.15614      266.37672     -217.70105      153.21171     -8.6280325      151.0948       171.87998      3703073.1    
   2946000   299.17071      0.89176891     0.67923197     1.5710009      188.8149       107.67353      182.25515      64.191913      33.11063       76.221429      0.083120757    182.11166      337.97909      3705313.9    
   2947000   300.12716      0.89461991     0.6808609      1.5754808      188.78684      107.62629      182.21122      387.98034     -46.265577      250.36177     -153.20432      87.07737       335.99704      3702245.4    
   2948000   300.11805      0.89459275     0.68214188     1.5767346      188.76248      107.69813      182.24971      250.54579      273.58199      101.08867     -71.275916      121.00533      328.77594      3705020.8    
   2949000   299.90234      0.89394975     0.68193545     1.5758852      188.79172      107.63344      182.34361     -214.62188      242.99268      50.858251      7.2872765      165.39578      249.40604      3705277.3    
   2950000   300.77932      0.89656385     0.68138737     1.5779512      188.85811      107.71276      182.30439     -214.92846      104.24697     -243.4849       121.25492     -31.145453      249.4272       3708514.2    
   2951000   299.60774      0.8930716      0.68142466     1.5744963      188.75701      107.6646       182.32615     -267.20889      76.050516     -267.50256     -28.134787      64.142181      229.81628      3705313.6    
   2952000   300.05343      0.89440011     0.68030004     1.5747002      188.85072      107.69692      182.22538     -96.26617      -2.2146312     -103.82672     -39.098928     -152.60768      184.19853      3706216.6    
   2953000   299.93097      0.89403508     0.68121737     1.5752525      188.86193      107.72012      182.23068     -170.40981     -151.14329      19.744719     -80.326774      115.10209      112.04441      3707342.8    
   2954000   300.56557      0.89592671     0.67983318     1.5757599      188.81918      107.70298      182.27856      6.3433075     -501.36303      30.244076      52.09267      -18.372974      191.20133      3706887.6    
   2955000   299.91154      0.89397717     0.67934202     1.5733192      188.7382       107.68193      182.3702       349.66767      171.4727       121.67145     -107.80138     -41.040314      250.86941      3706436.2    
   2956000   299.98567      0.89419814     0.68002856     1.5742267      188.79427      107.65138      182.29434      463.1972       172.62652      71.826163     -211.02434     -15.025477      236.25818      3704943.6    
   2957000   300.58593      0.89598741     0.68096348     1.5769509      188.72025      107.67786      182.24086      157.39539      92.104664     -49.094288     -66.531898      38.922286      294.57313      3703315.5    
   2958000   299.6971       0.89333796     0.6796342      1.5729722      188.75962      107.65066      182.25933      109.79686      57.010337     -129.20708     -23.640958      4.2841815      255.93876      3703527.3    
   2959000   300.11203      0.89457481     0.68138356     1.5759584      188.89946      107.66212      182.15406      236.12836      159.44131      122.71008     -226.86687      103.51606      256.22675      3704524.8    
   2960000   300.02525      0.89431613     0.67935911     1.5736752      188.8616       107.65786      182.27776      59.796306      326.20195      22.033274      36.526561      137.00389      425.84412      3706150.6    
   2961000   300.01761      0.89429335     0.67975429     1.5740476      188.74544      107.68123      182.27568      335.19001     -132.42744      138.172        147.0786       27.931462      271.4744       3704633      
   2962000   299.67445      0.89327046     0.67884699     1.5721174      188.82917      107.64519      182.09705      10.917082      166.67214      138.9467      -337.58995      244.02131      297.18523      3701405.2    
   2963000   299.86002      0.89382361     0.68096224     1.5747858      188.8227       107.66937      182.24668      277.49393      105.47352     -16.252466     -106.9086       26.393216      261.45262      3705151.7    
   2964000   299.94804      0.89408597     0.67990017     1.5739861      188.80542      107.67502      182.29784      71.739823      139.48724     -43.229558      13.841631      101.57141      272.92601      3706047.1    
   2965000   299.30071      0.89215642     0.68285509     1.5750115      188.88637      107.67041      182.28458      96.32938      -17.772353     -59.66173      -59.824383     -20.775767      228.57217      3707207.6    
   2966000   300.16993      0.89474738     0.68134932     1.5760967      188.9086       107.74193      182.20148     -589.61422     -399.66611      58.864997      87.995354     -65.818467      348.21444      3708415.3    
   2967000   300.76342      0.89651646     0.68201934     1.5785358      188.75808      107.70016      182.27238     -107.5352      -72.438321     -9.1101854     -15.732125      122.9903       346.70614      3705465.3    
   2968000   300.21244      0.89487411     0.68313995     1.5780141      188.82656      107.68126      182.23116     -281.01805      13.866774     -191.85492      94.36779       110.67019      259.44416      3705321.4    
   2969000   299.57218      0.89296562     0.6809974      1.573963       188.79536      107.66485      182.33708     -34.717282     -42.96832      -87.314548      49.736075      116.51308      310.82556      3706297.1    
   2970000   300.16308      0.89472696     0.68007766     1.5748046      188.76351      107.67031      182.28521      162.90299     -171.38969      42.924698      85.553436      1.391153       164.35665      3704805.8    
   2971000   299.97808      0.89417551     0.6819075      1.576083       188.81046      107.69325      182.18431     -30.398251      67.345479      74.151839     -0.034164438    104.41419      242.28673      3704465.1    
   2972000   299.80338      0.89365477     0.68004832     1.5737031      188.79789      107.6799       182.26042      91.739255     -76.124576     -50.954907      18.666754      14.992497      244.72365      3705306.6    
   2973000   300.53856      0.89584621     0.68185915     1.5777054      188.79482      107.68831      182.23708      339.1415      -93.638377      54.770228     -90.345496      115.2442       315.65749      3705061.3    
   2974000   300.65042      0.89617964     0.68113275     1.5773124      188.84967      107.65107      182.1593       212.46249      28.401449      133.9915      -51.920871      87.109408      244.56852      3703274.5    
   2975000   300.10067      0.89454093     0.68100927     1.5755502      188.80449      107.70675      182.2856      -100.66682     -180.45683      48.755873      98.018229      222.75159      405.6984       3706872.1    
   2976000   299.88607      0.89390126     0.67990618     1.5738074      188.78472      107.71232      182.27301     -273.37953      111.59567     -159.703        60.845036     -7.6634771      272.92317      3706419.4    
   2977000   300.04005      0.89436023     0.6825159      1.5768761      188.77617      107.71773      182.28569      219.7366      -94.752323     -171.59788      8.2609739      47.414589      218.46397      3706695.6    
   2978000   299.91998      0.89400233     0.68060115     1.5746035      188.7949       107.69278      182.30368      135.44603      116.47337      0.1173998      54.180604      11.736115      265.81057      3706570.4    
   2979000   299.63418      0.89315042     0.68148253     1.5746329      188.78786      107.70102      182.21535     -228.75037      263.82164      84.847118     -70.828961     -36.585596      209.23644      3704919.9    
   2980000   300.06476      0.8944339      0.68086344     1.5752973      188.86356      107.69764      182.15946     -287.8958       203.61044      21.005908      167.9396       23.266491      306.17076      3705152.7    
   2981000   299.48831      0.89271562     0.68172217     1.5744378      188.81667      107.6603       182.31422     -4.4156847     -220.87418      41.100181      128.54449      10.735816      301.42063      3706094.4    
   2982000   299.66036      0.89322847     0.68198536     1.5752138      188.82607      107.7075       182.36032     -73.639113     -177.05745      106.28847     -82.294511      0.28091994     265.68249      3708841.2    
   2983000   300.40803      0.8954571      0.68135059     1.5768077      188.72345      107.7665       182.3412      -143.52758      18.071322      215.58764     -13.476488      79.829103      272.77552      3708467.1    
   2984000   299.62613      0.89312642     0.67994421     1.5730706      188.76491      107.68801      182.18419      229.62004      35.669981      177.95091     -88.712714      11.856612      128.04121      3703388.6    
   2985000   299.58217      0.89299538     0.68123225     1.5742276      188.72023      107.71671      182.22718      175.17609     -93.17153      -187.6836       88.756794      8.2286121      255.16754      3704372.7    
   2986000   300.15983      0.89471727     0.68150206     1.5762193      188.65095      107.67647      182.24844     -24.018036      93.316388      35.599463     -183.28748     -8.9499764      262.91705      3702061.6    
   2987000   300.64953      0.89617698     0.67935225     1.5755292      188.77881      107.70616      182.19965      64.65997      -233.0833       68.542016      69.838717      73.033282      299.01167      3704599.8    
   2988000   299.57498      0.89297395     0.68146359     1.5744375      188.81111      107.65883      182.25001     -61.471138     -332.59032      135.46133     -59.996104     -33.021089      259.36399      3704629.2    
   2989000   299.47471      0.89267506     0.67968122     1.5723563      188.75527      107.72479      182.25247     -131.92863     -151.62668     -301.97905     -93.019124      66.46483       188.55214      3705852.7    
   2990000   299.85918      0.89382109     0.68146101     1.5752821      188.76498      107.74103      182.36924     -67.070496     -29.669154     -106.37316     -124.50988      32.252778      288.78023      3708977.2    
   2991000   300.21746      0.89488908     0.68176056     1.5766496      188.74869      107.72944      182.23186     -0.22627416    -73.952939      70.950588     -59.473009      28.970375      237.43588      3705464.6    
   2992000   300.56975      0.89593918     0.68347277     1.5794119      188.78572      107.71885      182.1934      -196.49926     -220.13313      104.90355     -137.09548      78.218082      231.68746      3705044.8    
   2993000   300.0073       0.89426262     0.6806134      1.574876       188.77402      107.70549      182.18661     -219.80863      179.6977       89.897694      213.05421      66.314915      277.76036      3704218      
   2994000   298.91811      0.89101597     0.68080827     1.5718242      188.79453      107.70483      182.34934     -112.55073      175.43831     -168.22234     -64.845241     -18.946023      310.3661       3707906.3    
   2995000   300.41043      0.89546426     0.68108058     1.5765448      188.73279      107.70595      182.28783      67.795022      210.98257     -92.522076      191.42445      41.274046      130.72462      3705482.2    
   2996000   299.99271      0.89421914     0.68235957     1.5765787      188.73658      107.7371       182.19251      303.35271      53.599369      249.87006      59.750589     -44.265456      71.420914      3704689.8    
   2997000   300.34235      0.89526134     0.68052796     1.5757893      188.83528      107.69323      182.26185     -281.33383      263.4996      -66.831844     -121.59246      150.7043       304.88176      3706528      
   2998000   299.71873      0.89340244     0.68117913     1.5745816      188.69764      107.7099       182.29471     -20.33923      -254.71654     -10.513556      52.324282      111.3649       412.46096      3705068      
   2999000   300.50278      0.89573955     0.68012314     1.5758627      188.73229      107.70463      182.21292      103.01697     -178.01898      41.579482      104.50669      57.030453      454.40182      3703904.2    
   3000000   300.70894      0.89635406     0.67922836     1.5755824      188.74714      107.7155       182.15989     -205.71643     -111.2608      -72.743267     -13.135057      131.07093      211.80659      3703491.4    
Loop time of 23192.4 on 256 procs for 1500000 steps with 414720 atoms

Performance: 5.588 ns/day, 4.295 hours/ns, 64.676 timesteps/s, 26.823 Matom-step/s
99.4% CPU use with 256 MPI tasks x no OpenMP threads

MPI task timing breakdown:
Section |  min time  |  avg time  |  max time  |%varavg| %total
---------------------------------------------------------------
Pair    | 10188      | 10386      | 10601      |  67.2 | 44.78
Bond    | 454.45     | 463.16     | 478.35     |  18.0 |  2.00
Kspace  | 3238.9     | 3518       | 3830       | 175.5 | 15.17
Neigh   | 4963.9     | 5060.4     | 5142.2     |  61.3 | 21.82
Comm    | 2228.2     | 2555.7     | 2932.6     | 304.1 | 11.02
Output  | 1.1087     | 4.0815     | 4.3618     |  11.5 |  0.02
Modify  | 909.1      | 1048.4     | 1140.5     | 145.3 |  4.52
Other   |            | 156.8      |            |       |  0.68

Nlocal:           1620 ave        1641 max        1597 min
Histogram: 6 5 23 31 38 67 37 37 9 3
Nghost:        8456.96 ave        8565 max        8335 min
Histogram: 1 6 21 36 54 47 41 31 14 5
Neighs:         382239 ave      389387 max      373192 min
Histogram: 3 4 11 27 51 49 64 26 15 6

Total # of neighbors = 97853303
Ave neighs/atom = 235.95029
Ave special neighs/atom = 9.4
Neighbor list builds = 206799
Dangerous builds = 17
unfix           4

unfix           7  # box_parameters.dat
unfix           6  # center.dat
unfix           2  # output.dat
unfix           1
#======================NPT equilibration
fix             5 all nph tri ${patm} ${patm} ${pdamp} fixedpoint ${xcm} ${ycm} ${zcm} flip no
fix             5 all nph tri 1 ${patm} ${pdamp} fixedpoint ${xcm} ${ycm} ${zcm} flip no
fix             5 all nph tri 1 1 ${pdamp} fixedpoint ${xcm} ${ycm} ${zcm} flip no
fix             5 all nph tri 1 1 1000 fixedpoint ${xcm} ${ycm} ${zcm} flip no
fix             5 all nph tri 1 1 1000 fixedpoint 84.9659074412232 ${ycm} ${zcm} flip no
fix             5 all nph tri 1 1 1000 fixedpoint 84.9659074412232 49.2738681591411 ${zcm} flip no
fix             5 all nph tri 1 1 1000 fixedpoint 84.9659074412232 49.2738681591411 86.2722299428478 flip no
run             ${trelax}
run             50000
PPPM initialization ...
  using 12-bit tables for long-range coulomb (../kspace.cpp:342)
  G vector (1/distance) = 0.29202899
  grid = 32 32 60
  stencil order = 6
  estimated absolute RMS force accuracy = 3.430745
  estimated relative force accuracy = 0.010331587
  using double precision KISS FFT
  3d grid and FFT values/proc = 2310 256
Generated 3 of 3 mixed pair_coeff terms from arithmetic mixing rule
Per MPI rank memory allocation (min/avg/max) = 18.44 | 18.45 | 18.45 Mbytes
   Step          Temp          KinEng         PotEng         TotEng           Lx             Ly             Lz            Pxx            Pyy            Pzz            Pxy            Pxz            Pyz           Volume    
   3000000   300.70894      0.89635406     0.67922837     1.5755824      188.74714      107.7155       182.15989     -205.71484     -111.26054     -72.74279      -13.132328      131.0715       211.94293      3703491.4    
   3001000   300.24961      0.89498489     0.68214531     1.5771302      188.72679      107.69321      182.21126     -86.953338     -35.056553      205.15429      114.78444      78.172184      364.08749      3703369.8    
   3002000   300.00644      0.89426004     0.68021389     1.5744739      188.69359      107.6706       182.14261     -230.83168     -181.88127     -157.02127     -133.77375     -92.000403      161.93204      3700546.1    
   3003000   300.44873      0.89557843     0.68034216     1.5759206      188.7284       107.67506      182.0991       33.373978     -121.32257      51.510436      75.972287      47.185818      131.34277      3700498.2    
   3004000   299.4451       0.89258682     0.67837731     1.5709641      188.72258      107.65034      182.11608     -110.15776     -153.08478     -118.30172     -20.075017     -12.936204      147.47559      3699879.4    
   3005000   299.8387       0.89376006     0.68083834     1.5745984      188.73099      107.64862      182.08523     -302.72593     -3.9817936      53.40739      -51.724181      111.77117      46.643626      3699358.3    
   3006000   300.27993      0.89507528     0.67759703     1.5726723      188.71019      107.65936      182.03085     -58.932639     -309.11055      78.596506      46.740164     -22.302387      95.535075      3698214.7    
   3007000   299.74378      0.89347711     0.67719337     1.5706705      188.66454      107.67116      182.06218     -81.540487      28.5935       -46.259117     -98.754027      1.7363902      131.52226      3698361.9    
   3008000   300.21346      0.89487713     0.67894797     1.5738251      188.73495      107.65891      182.06395     -68.75261      -167.71296     -162.81468      37.34131      -101.91131      63.573381      3699357.2    
   3009000   300.0109       0.89427334     0.67847528     1.5727486      188.67515      107.63584      182.02232     -248.79853     -181.42934      0.30959035    -88.5915       -47.561738      63.294559      3696547.3    
   3010000   299.94636      0.89408096     0.67698844     1.5710694      188.71399      107.6197       181.99271      225.01193     -8.7469299      195.79351      185.49036     -153.79382      24.868431      3696152.3    
   3011000   300.47966      0.89567062     0.67550267     1.5711733      188.68564      107.60329      181.99346      308.81539      361.40533      133.31271     -49.238882     -65.990105      159.68235      3695048.7    
   3012000   299.67387      0.89326873     0.67816187     1.5714306      188.73379      107.60207      182.03056     -179.14232     -151.00619      173.703       -69.157966     -49.458028      139.92256      3696703.4    
   3013000   300.01052      0.8942722      0.67653575     1.570808       188.7017       107.55568      182.03621     -230.02771     -124.57834     -54.835821     -58.687634     -120.17233     -87.459591      3694596.1    
   3014000   300.01012      0.89427104     0.67915188     1.5734229      188.76166      107.5882       182.05911     -142.31111      284.98049     -205.68432      52.812467      30.421986     -154.21862      3697352.4    
   3015000   299.77848      0.89358056     0.67811544     1.571696       188.65634      107.55611      182.06024      207.42815      252.02316     -40.206485      6.1317184      99.515382      62.727386      3694210.4    
   3016000   300.04703      0.89438105     0.67836265     1.5727437      188.6998       107.54304      182.04079     -17.559401      185.3306       176.69045      238.44929     -55.693529      86.395605      3694217.5    
   3017000   299.9378       0.89405546     0.67748632     1.5715418      188.68042      107.51536      182.12126     -179.83542      133.73996     -39.134103      58.598997     -204.55771      155.37847      3694519.7    
   3018000   300.26135      0.89501989     0.67721107     1.572231       188.69447      107.56848      181.92041     -320.77332      431.32116      19.402673      28.533982      4.093272       21.473263      3692543.8    
   3019000   300.23645      0.89494567     0.67829438     1.5732401      188.7201       107.60719      182.01112     -102.79373      255.39599     -29.224174     -51.558926      177.84725      180.33038      3696216      
   3020000   299.80652      0.89366414     0.67770389     1.571368       188.76991      107.59383      182.08369      252.75591     -120.70293      58.247905      1.0466783      17.221016     -63.899386      3698206.8    
   3021000   300.01148      0.89427508     0.67797476     1.5722498      188.77287      107.55603      182.05964     -137.49526      142.02803      198.49464      4.3599576     -67.075139     -72.450864      3696477.1    
   3022000   300.41621      0.89548151     0.67506538     1.5705469      188.75428      107.5382       182.00714      31.681488      85.886794     -176.80932     -82.401443     -31.261548     -14.093187      3694434.7    
   3023000   299.96044      0.89412293     0.67770743     1.5718304      188.77216      107.52955      181.97988      150.86551     -165.23034      68.477621      10.008208      82.831005      74.742083      3693934.1    
   3024000   299.42471      0.89252605     0.6772455      1.5697715      188.69158      107.56653      182.04164     -111.84666     -69.677858     -185.63209      20.222697      32.764991     -94.668311      3694880.8    
   3025000   299.84701      0.89378483     0.67873593     1.5725208      188.64716      107.62688      182.17805      53.618242     -377.28658     -107.70401      24.553115     -28.468387      101.58749      3698853      
   3026000   299.76389      0.89353705     0.67951742     1.5730545      188.73923      107.58303      182.07022     -163.73133     -54.270796     -73.03137      -118.05406     -166.81703      60.391075      3696960.9    
   3027000   299.87529      0.89386912     0.67547395     1.5693431      188.71009      107.56631      181.98648     -253.28162      78.037124      89.192655      158.53609      16.73389      -197.92816      3694115.8    
   3028000   300.05827      0.89441456     0.67814156     1.5725561      188.73531      107.60107      182.10381     -227.38382      4.6290415     -235.54171     -80.415996      100.89446      6.5992252      3698186.3    
   3029000   300.432        0.89552856     0.67895064     1.5744792      188.6742       107.60476      182.02785     -4.1606483      108.11748     -130.35165     -68.269437      125.34654     -47.135106      3695573.4    
   3030000   299.75179      0.89350099     0.67636697     1.569868       188.57282      107.56918      182.05154      160.43142     -119.66735      76.747924     -97.561795     -33.455287     -97.049782      3692847.2    
   3031000   299.56265      0.8929372      0.6777229      1.5706601      188.68855      107.59049      181.9369      -138.36927     -338.08152     -56.763729      27.566489     -139.2214      -118.21967      3693518.2    
   3032000   300.03022      0.89433095     0.67704488     1.5713758      188.75603      107.57407      181.99853      29.925096     -25.289525      1.9245877      285.14646     -50.511288      11.967747      3695526.6    
   3033000   299.87817      0.8938777      0.67659426     1.570472       188.79658      107.53999      182.02061      44.451105      115.99342      81.081         58.70021      -104.2714       78.840987      3695597.6    
   3034000   300.70027      0.89632823     0.67852643     1.5748547      188.77559      107.56755      182.10863      22.97443       71.870966      151.92227      46.03078       101.17329      3.3372046      3697920.9    
   3035000   300.39833      0.89542819     0.67845536     1.5738836      188.67037      107.5827       181.99302     -192.08557     -28.736181      30.269454     -33.497491      71.71879       3.1941468      3694033.9    
   3036000   300.61826      0.89608378     0.67692491     1.5730087      188.7173       107.58027      181.96084      11.54911       101.2566      -27.542011     -136.69233      19.384858     -40.057737      3694216      
   3037000   300.14953      0.89468657     0.67923978     1.5739264      188.66709      107.59544      182.09694      62.852656     -8.5828279     -221.88521     -139.19133     -54.864076      153.99174      3696516.8    
   3038000   300.33747      0.89524678     0.67635653     1.5716033      188.69707      107.58757      182.03125      359.99525     -98.291381     -8.5940026     -55.590137     -108.53408      65.226315      3695500      
   3039000   299.63358      0.89314863     0.67648394     1.5696326      188.59447      107.57737      181.86095      0.5871039      114.36706      184.0188       35.014369      32.484616     -176.84642      3689685.3    
   3040000   300.59399      0.89601144     0.67538853     1.5714         188.66561      107.59883      182.02849     -60.377564     -101.57251     -116.08139      341.9233       51.555889     -37.719843      3695214.6    
   3041000   300.61354      0.89606969     0.67767706     1.5737468      188.71623      107.57705      182.09176      25.889919     -34.942836     -272.95288     -19.008901      23.03051       13.876642      3696742.3    
   3042000   300.55339      0.89589042     0.67729653     1.5731869      188.78991      107.57841      182.03844      179.91111      2.4805317      99.898648      167.17358     -30.481187     -16.711102      3697149.3    
   3043000   299.5838       0.89300026     0.67736354     1.5703638      188.65115      107.58012      182.02166     -139.98474     -90.079947      172.40923     -90.751141      46.670836     -38.173305      3694150.2    
   3044000   300.13911      0.89465551     0.67849805     1.5731536      188.73532      107.5304       182.00578     -245.82811      98.774197     -230.41193     -3.0030914      7.2174185      53.144741      3693768      
   3045000   300.13432      0.89464123     0.67521111     1.5698523      188.69274      107.54242      181.90682      149.39822      133.00848      49.503873      164.18872      107.26488      125.92241      3691339.5    
   3046000   300.17481      0.89476193     0.67852462     1.5732865      188.75105      107.56928      182.02326      26.059008     -172.20522     -0.97730759    -14.116688     -165.7615       9.4341348      3695766.5    
   3047000   300.31089      0.89516757     0.67768346     1.572851       188.66222      107.58857      182.01255      169.97764     -61.875999      25.292727      162.57195      39.594601      22.088287      3694472.3    
   3048000   300.35215      0.89529054     0.67808211     1.5733726      188.61572      107.59913      182.04415     -342.76563     -82.919932     -32.952568      17.041404      28.21406       54.763614      3694565.5    
   3049000   300.21263      0.89487466     0.67509352     1.5699682      188.63483      107.57854      182.09314      142.82612      170.95818      290.7721      -203.92267      47.831388      52.840434      3695227      
   3050000   299.63218      0.89314446     0.67567217     1.5688166      188.70912      107.55741      181.91317     -95.581882      106.80039      66.591582      83.54778      -14.965069     -3.33975        3692303.2    
Loop time of 755.94 on 256 procs for 50000 steps with 414720 atoms

Performance: 5.715 ns/day, 4.200 hours/ns, 66.143 timesteps/s, 27.431 Matom-step/s
99.4% CPU use with 256 MPI tasks x no OpenMP threads

MPI task timing breakdown:
Section |  min time  |  avg time  |  max time  |%varavg| %total
---------------------------------------------------------------
Pair    | 336.69     | 342.6      | 353.69     |  12.9 | 45.32
Bond    | 15.115     | 15.426     | 16.131     |   3.5 |  2.04
Kspace  | 105.67     | 113.77     | 122.96     |  31.8 | 15.05
Neigh   | 166.58     | 169.77     | 172.53     |  11.0 | 22.46
Comm    | 75.921     | 85.263     | 97.37      |  53.8 | 11.28
Output  | 0.010433   | 0.01521    | 0.022821   |   2.2 |  0.00
Modify  | 19.293     | 23.832     | 26.958     |  31.5 |  3.15
Other   |            | 5.266      |            |       |  0.70

Nlocal:           1620 ave        1640 max        1594 min
Histogram: 3 8 16 34 25 50 52 32 21 15
Nghost:        8466.12 ave        8553 max        8377 min
Histogram: 5 9 22 39 38 61 48 18 11 5
Neighs:         383191 ave      389285 max      373672 min
Histogram: 3 4 15 19 39 31 58 35 33 19

Total # of neighbors = 98096801
Ave neighs/atom = 236.53743
Ave special neighs/atom = 9.4
Neighbor list builds = 6931
Dangerous builds = 1
unfix           5
######################################
# SIMULATION DONE
Total wall time: 13:20:39
