LAMMPS (27 Jun 2024)
include lmp.in
#smiles: Cc1c(C)c(C)c(C)c(C)c1C
units real
atom_style full

dimension 3
boundary p p p  #p p m

bond_style hybrid harmonic
angle_style hybrid harmonic
dihedral_style hybrid charmm
# special_bonds amber # same as special_bonds lj 0.0 0.0 0.5000 coul 0.0 0.0 0.83333
special_bonds amber lj 0.0 0.0 0.50000 coul 0.0 0.0 0.83333 angle yes dihedral no
box tilt large

The 'box' command has been removed and will be ignored


read_data lmp.dat
Reading data file ...
  triclinic box = (0 0 0) to (30.8471 17.6224 57.5148) with tilt (0.0233 -6.027 -0.9687)
  8 by 4 by 8 MPI processor grid
  reading atoms ...
  3840 atoms
  reading velocities ...
  3840 velocities
  scanning bonds ...
  4 = max bonds/atom
  scanning angles ...
  6 = max angles/atom
  scanning dihedrals ...
  8 = max dihedrals/atom
  triclinic box = (0 0 0) to (30.8471 17.6224 57.5148) with tilt (0.0233 -6.027 -0.9687)
  8 by 4 by 8 MPI processor grid
  reading bonds ...
  3840 bonds
  reading angles ...
  6912 angles
  reading dihedrals ...
  3840 dihedrals
Finding 1-2 1-3 1-4 neighbors ...
  special bond factors lj:    0        0        0.5     
  special bond factors coul:  0        0        0.83333 
     4 = max # of 1-2 neighbors
     7 = max # of 1-3 neighbors
    17 = max # of 1-4 neighbors
  13824 = # of 1-3 neighbors before angle trim
  13824 = # of 1-3 neighbors after angle trim
    19 = max # of special neighbors
  special bonds CPU = 0.494 seconds
  read_data CPU = 0.566 seconds

neighbor 2.0 multi
neigh_modify every 2 delay 4 check yes
#neigh_modify every 2 delay 10

pair_style lj/cut/coul/long 9.0 9.0
pair_modify mix arithmetic shift no tail yes
kspace_style pppm 0.0005
kspace_modify gewald 0.29202898720871845 mesh 32 32 60 order 6

pair_coeff 1 1   0.1094000   3.3996695
pair_coeff 2 2   0.0860000   3.3996695
pair_coeff 3 3   0.0157000   2.6495328

#pair_modify mix arithmetic
thermo_style custom step temp vol press etotal pe ke epair ecoul elong evdwl ebond eangle edihed eimp emol etail #    cella cellb cellc cellalpha cellbeta cellgamma density pxx pyy pzz pxy pxy pyz
thermo_modify lost ignore flush yes

#compute peatom all pe/atom
#dump 1 all custom 1 dump.lammpstrj id type q x y z fx fy fz c_peatom element
#dump_modify 1 sort id pad 9 element C C H

#minimize 1e-5 1e-5 100 100
#run 0

variable temperature equal      300.000
variable patm equal        1.000
variable dt equal        1.000
variable trelax equal   50000.000
variable deform_steps equal       50.000
variable ele_string string "C C H"
variable strain_total equal        0.30
variable strainrate equal 2.000000e+08
variable direction1 string yz
variable direction2 string xz
replicate  6 6 3
Replication is creating a 6x6x3 = 108 times larger system...
  triclinic box = (0 0 0) to (185.0826 105.7344 172.5444) with tilt (0.1398 -18.081 -2.9061)
  8 by 4 by 8 MPI processor grid
  414720 atoms
  414720 bonds
  746496 angles
  414720 dihedrals
Finding 1-2 1-3 1-4 neighbors ...
  special bond factors lj:    0        0        0.5     
  special bond factors coul:  0        0        0.83333 
     4 = max # of 1-2 neighbors
     7 = max # of 1-3 neighbors
    17 = max # of 1-4 neighbors
  1492992 = # of 1-3 neighbors before angle trim
  1492992 = # of 1-3 neighbors after angle trim
    19 = max # of special neighbors
  special bonds CPU = 0.018 seconds
  replicate CPU = 0.048 seconds
#include lmp.in

variable srate      equal ${strainrate}/1e15
variable srate      equal 200000000/1e15
variable thermo     equal "ceil(abs(1e12 / v_strainrate))"
variable tdamp      equal 100*${dt}
variable tdamp      equal 100*1
variable pdamp      equal 1000*${dt}
variable pdamp      equal 1000*1
variable pe         equal pe

# for units real, pressure is in [atmospheres] = 0.101325 [MPa]
variable sxx        equal "-pxx*0.101325"
variable syy        equal "-pyy*0.101325"
variable szz        equal "-pzz*0.101325"
variable sxz        equal "-pxz*0.101325"
variable syz        equal "-pyz*0.101325"
variable sxy        equal "-pxy*0.101325"
variable steps      equal ceil(abs(${strain_total}/${srate}))
variable steps      equal ceil(abs(0.3/${srate}))
variable steps      equal ceil(abs(0.3/2e-07))
variable dump_steps equal ceil(${steps}/${deform_steps})
variable dump_steps equal ceil(1500000/${deform_steps})
variable dump_steps equal ceil(1500000/50)
variable strain     equal "step*v_srate"
variable    xcm     equal xcm(all,x)
variable    ycm     equal xcm(all,y)
variable    zcm     equal xcm(all,z)
variable    xhi     equal xhi
variable    yhi     equal yhi
variable    zhi     equal zhi
variable    xlo     equal xlo
variable    ylo     equal ylo
variable    zlo     equal zlo
variable    xy      equal xy
variable    xz      equal xz
variable    yz      equal yz


print "strainrate ${strainrate}"
strainrate 200000000
print "srate ${srate}"
srate 2e-07
print "steps ${steps}"
steps 1500000
print "dump_steps ${dump_steps}"
dump_steps 30000


thermo          1000
neighbor        1.0    bin
neigh_modify    every 1 delay 5 check yes
thermo_style    custom step temp ke pe etotal lx ly lz pxx pyy pzz pxy pxz pyz vol
WARNING: New thermo_style command, previous thermo_modify settings will be lost (../output.cpp:904)
thermo_modify   lost warn norm yes
timestep 	    ${dt}
timestep 	    1

#======================== Energy minimization
min_style       cg
minimize        1.0e-25 1.0e-25 100 100000

CITE-CITE-CITE-CITE-CITE-CITE-CITE-CITE-CITE-CITE-CITE-CITE-CITE

Your simulation uses code contributions which should be cited:

- Type Label Framework: https://doi.org/10.1021/acs.jpcb.3c08419

@Article{Gissinger24,
 author = {Jacob R. Gissinger, Ilia Nikiforov, Yaser Afshar, Brendon Waters, Moon-ki Choi, Daniel S. Karls, Alexander Stukowski, Wonpil Im, Hendrik Heinz, Axel Kohlmeyer, and Ellad B. Tadmor},
 title = {Type Label Framework for Bonded Force Fields in LAMMPS},
 journal = {J. Phys. Chem. B},
 year =    2024,
 volume =  128,
 number =  13,
 pages =   {3282â€“-3297}
}

- neighbor multi command: doi:10.1016/j.cpc.2008.03.005, doi:10.1007/s40571-020-00361-2

@Article{Intveld08,
 author =  {in 't Veld, P. J. and S. J.~Plimpton and G. S. Grest},
 title =   {Accurate and Efficient Methods for Modeling Colloidal
            Mixtures in an Explicit Solvent using Molecular Dynamics},
 journal = {Comput.\ Phys.\ Commut.},
 year =    2008,
 volume =  179,
 pages =   {320--329}
}

@article{Shire2020,
 author = {Shire, Tom and Hanley, Kevin J. and Stratford, Kevin},
 title = {{DEM} Simulations of Polydisperse Media: Efficient Contact
          Detection Applied to Investigate the Quasi-Static Limit},
 journal = {Computational Particle Mechanics},
 year = {2020}
@article{Monti2022,
 author = {Monti, Joseph M. and Clemmer, Joel T. and Srivastava, 
           Ishan and Silbert, Leonardo E. and Grest, Gary S. 
           and Lechman, Jeremy B.},
 title = {Large-scale frictionless jamming with power-law particle 
          size distributions},
 journal = {Phys. Rev. E},
 volume = {106}
 issue = {3}
 year = {2022}
}

CITE-CITE-CITE-CITE-CITE-CITE-CITE-CITE-CITE-CITE-CITE-CITE-CITE

Switching to 'neigh_modify every 1 delay 0 check yes' setting during minimization
PPPM initialization ...
  using 12-bit tables for long-range coulomb (../kspace.cpp:342)
  G vector (1/distance) = 0.29202899
  grid = 32 32 60
  stencil order = 6
  estimated absolute RMS force accuracy = 2.8571248
  estimated relative force accuracy = 0.0086041466
  using double precision KISS FFT
  3d grid and FFT values/proc = 2310 256
Generated 3 of 3 mixed pair_coeff terms from arithmetic mixing rule
Neighbor list info ...
  update: every = 1 steps, delay = 0 steps, check = yes
  max neighbors/atom: 2000, page size: 100000
  master list distance cutoff = 10
  ghost atom cutoff = 10
  binsize = 5, bins = 41 22 35
  1 neighbor lists, perpetual/occasional/extra = 1 0 0
  (1) pair lj/cut/coul/long, perpetual
      attributes: half, newton on
      pair build: half/bin/newton/tri
      stencil: half/bin/3d/tri
      bin: standard
Per MPI rank memory allocation (min/avg/max) = 17.26 | 17.26 | 17.27 Mbytes
   Step          Temp          KinEng         PotEng         TotEng           Lx             Ly             Lz            Pxx            Pyy            Pzz            Pxy            Pxz            Pyz           Volume    
         0   0              0              4.2825885      4.2825885      185.0826       105.7344       172.5444       137338.95      121512.06      216523.6      -4296.0927     -4806.8582      2648.8182      3376624.5    
        66   0              0             -0.29790531    -0.29790531     185.0826       105.7344       172.5444      -3083.867      -2732.5982      932.45944     -920.37903     -782.45777      327.3653       3376624.5    
Loop time of 4.16821 on 256 procs for 66 steps with 414720 atoms

98.8% CPU use with 256 MPI tasks x no OpenMP threads

Minimization stats:
  Stopping criterion = linesearch alpha is zero
  Energy initial, next-to-last, final = 
      4.28258852997219  -0.29790530902869 -0.297905309028693
  Force two-norm initial, final = 59619.755 27.935035
  Force max component initial, final = 140.90257 0.10194492
  Final line search alpha, max atom move = 6.5855622e-06 6.7136463e-07
  Iterations, force evaluations = 66 163

MPI task timing breakdown:
Section |  min time  |  avg time  |  max time  |%varavg| %total
---------------------------------------------------------------
Pair    | 1.778      | 1.8384     | 3.4085     |   7.5 | 44.10
Bond    | 0.045177   | 0.045861   | 0.049232   |   0.2 |  1.10
Kspace  | 0.37091    | 1.9426     | 2.0131     |   7.4 | 46.61
Neigh   | 0          | 0          | 0          |   0.0 |  0.00
Comm    | 0.23129    | 0.26344    | 0.31899    |   4.0 |  6.32
Output  | 0          | 0          | 0          |   0.0 |  0.00
Modify  | 0          | 0          | 0          |   0.0 |  0.00
Other   |            | 0.07787    |            |       |  1.87

Nlocal:           1620 ave        1620 max        1620 min
Histogram: 256 0 0 0 0 0 0 0 0 0
Nghost:           9027 ave        9045 max        9009 min
Histogram: 128 0 0 0 0 0 0 0 0 128
Neighs:         413478 ave      414651 max      412306 min
Histogram: 9 19 4 36 54 71 33 6 15 9

Total # of neighbors = 1.0585037e+08
Ave neighs/atom = 255.23333
Ave special neighs/atom = 9.4
Neighbor list builds = 0
Dangerous builds = 0
#fix             BoxRelax all box/relax tri 0.0  vmax 0.01 nreset 10 fixedpoint ${xcm} ${ycm} ${zcm}
#minimize        1.0e-25 1.0e-25 100 100# 000 1000000
#unfix           BoxRelax
dump            1 all custom 10000 0.dump element id mol type x y z
undump          1

#========================= Global setting for NPT simulation
fix             langevin all langevin ${temperature} ${temperature} ${tdamp} 32258453 zero yes
fix             langevin all langevin 300 ${temperature} ${tdamp} 32258453 zero yes
fix             langevin all langevin 300 300 ${tdamp} 32258453 zero yes
fix             langevin all langevin 300 300 100 32258453 zero yes

#======================== NPT equilibration
velocity        all create ${temperature} 1938072 mom yes rot no
velocity        all create 300 1938072 mom yes rot no
#fix             1 all npt temp ${temperature} ${temperature} ${tdamp} iso ${pressure} ${pressure} ${pdamp}
fix             1 all nph tri ${patm} ${patm} ${pdamp} fixedpoint ${xcm} ${ycm} ${zcm} flip no
fix             1 all nph tri 1 ${patm} ${pdamp} fixedpoint ${xcm} ${ycm} ${zcm} flip no
fix             1 all nph tri 1 1 ${pdamp} fixedpoint ${xcm} ${ycm} ${zcm} flip no
fix             1 all nph tri 1 1 1000 fixedpoint ${xcm} ${ycm} ${zcm} flip no
fix             1 all nph tri 1 1 1000 fixedpoint 86.4620903653394 ${ycm} ${zcm} flip no
fix             1 all nph tri 1 1 1000 fixedpoint 86.4620903653394 51.0010969797264 ${zcm} flip no
fix             1 all nph tri 1 1 1000 fixedpoint 86.4620903653394 51.0010969797264 86.2722299428767 flip no

dump            1 all custom 20000 equilibrium.*.dump element id mol type x y z
dump_modify     1 element ${ele_string}
dump_modify     1 element C C H
run             ${trelax}
run             50000
PPPM initialization ...
  using 12-bit tables for long-range coulomb (../kspace.cpp:342)
  G vector (1/distance) = 0.29202899
  grid = 32 32 60
  stencil order = 6
  estimated absolute RMS force accuracy = 2.8571248
  estimated relative force accuracy = 0.0086041466
  using double precision KISS FFT
  3d grid and FFT values/proc = 2310 256
Generated 3 of 3 mixed pair_coeff terms from arithmetic mixing rule
Per MPI rank memory allocation (min/avg/max) = 16.13 | 16.14 | 16.14 Mbytes
   Step          Temp          KinEng         PotEng         TotEng           Lx             Ly             Lz            Pxx            Pyy            Pzz            Pxy            Pxz            Pyz           Volume    
        66   300            0.89424086    -0.29790531     0.59633555     185.0826       105.7344       172.5444       1936.1799      2288.2198      5953.5316     -915.01976     -777.79983      338.82374      3376624.5    
      1000   299.15114      0.89171057     0.6376395      1.5293501      187.01314      106.86303      177.01804      1220.0525      746.8448       3154.4328     -172.95873     -345.24868     -142.74555      3537668.6    
      2000   299.55287      0.89290806     0.65918426     1.5520923      188.05951      107.29145      179.69589      244.94821     -82.016403      1205.7198     -65.899354     -182.33029     -27.678196      3625755.8    
      3000   299.72744      0.89342841     0.66941451     1.5628429      188.49172      107.38955      181.16577      54.398617      47.026         353.73159     -82.925292     -70.467215     -172.82379      3667165      
      4000   299.87966      0.89388215     0.67200315     1.5658853      188.63404      107.41023      181.76147     -214.53727     -353.09135      135.72612     -132.22037     -207.2471      -128.9693       3682710      
      5000   300.13398      0.89464023     0.67503084     1.5696711      188.75902      107.42384      181.99131     -77.43922      -78.869194      64.852979     -22.274742      0.46428072    -76.491933      3690277.6    
      6000   300.27024      0.8950464      0.6748825      1.5699289      188.79549      107.44555      181.99241      383.63696     -5.3990097      3.3259899     -70.275156     -126.42354     -41.462017      3691758.9    
      7000   299.91246      0.89397993     0.67615869     1.5701386      188.81427      107.43446      181.9949      -25.048655     -107.82245      34.960608      87.601957     -62.419121      54.688307      3691795.4    
      8000   300.06104      0.89442282     0.67734061     1.5717634      188.82598      107.42832      182.07591      167.8975      -24.243888     -37.309229     -62.910228      38.994074      62.494398      3693456.7    
      9000   300.9089       0.89695012     0.67295601     1.5699061      188.73905      107.41974      182.0693       72.153589      66.476698      211.93189     -30.833636      80.321607      101.24745      3691327.6    
     10000   299.1125       0.8915954      0.67502447     1.5666199      188.85254      107.44021      182.13895     -139.09378      28.0463       -81.055427     -123.88399      20.714478      53.818667      3695664.2    
     11000   299.73874      0.89346209     0.67463632     1.5680984      188.85563      107.4577       182.05601     -52.44521      -137.69641      119.05594     -102.68106      14.885307      47.995424      3694643.1    
     12000   300.54321      0.89586005     0.6731105      1.5689706      188.73718      107.38983      181.96338      487.05004      230.78493      157.51128     -99.085571     -68.115429     -112.81114      3688116.1    
     13000   300.7302       0.89641743     0.67319053     1.569608       188.81464      107.4294       182.03138      344.16048      109.36942      67.428003      32.131035      15.40293       16.219627      3692368.9    
     14000   299.64481      0.8931821      0.67600509     1.5691872      188.82858      107.42303      182.0403      -15.725563     -210.59616     -16.844477     -107.73402      51.585281      94.790899      3692603.3    
     15000   299.6498       0.89319697     0.67313426     1.5663312      188.70211      107.4301       182.0828      -4.0498255     -44.966986     -13.421077     -52.83274       85.18994      -109.22326      3691234.6    
     16000   299.75297      0.89350452     0.67572065     1.5692252      188.80339      107.48082      182.03883     -33.770373     -51.871867     -114.19493     -155.98755     -48.297062      66.720151      3694067.3    
     17000   300.7842       0.89657842     0.67674362     1.573322       188.77408      107.4617       182.0194       30.153148      19.923928     -47.469101      314.73964      84.432914      71.432204      3692442.4    
     18000   299.95743      0.89411397     0.67370981     1.5678238      188.85257      107.42405      181.96838     -16.355045     -160.03674     -23.883235     -67.564534      19.986247      16.884298      3691648.6    
     19000   300.6516       0.89618314     0.6738866      1.5700697      188.86327      107.40668      182.03885      42.00733       95.5482       -99.154363      24.75801      -51.259036      100.29495      3692690.3    
     20000   300.0387       0.8943562      0.67727334     1.5716295      188.85142      107.41433      182.17154     -225.31188      196.32153      68.003502     -99.723996     -98.949634     -13.443621      3695413.3    
     21000   299.35761      0.89232603     0.67527299     1.567599       188.75718      107.43211      182.09331      171.64505      59.034283     -99.925016     -129.59108     -21.36674       73.108423      3692594.1    
     22000   300.21501      0.89488177     0.67616416     1.5710459      188.82344      107.46608      182.06235     -50.43781      -69.661105     -22.257982     -69.504324     -31.68908      -52.991662      3694430.2    
     23000   299.90418      0.89395525     0.67765528     1.5716105      188.83872      107.44896      182.0019      -79.306571     -127.14328      165.10895      60.60756      -111.63648     -39.215666      3692914      
     24000   299.5457       0.89288668     0.67699725     1.5698839      188.76205      107.45259      181.97275      30.888921     -89.085257      98.740728     -69.935359      193.27457      76.144989      3690947.9    
     25000   300.51495      0.89577584     0.67560498     1.5713808      188.85696      107.43642      182.01277     -280.46663      302.17542     -49.355684      8.6724844      73.369155     -132.18498      3693060.1    
     26000   300.28399      0.89508739     0.67802799     1.5731154      188.71562      107.47925      182.11695      92.230348     -230.25205     -145.2457       85.13672      -58.231816     -46.888861      3693880.4    
     27000   299.78196      0.89359093     0.67606666     1.5696576      188.65417      107.47671      182.02059      45.233385      226.17864     -132.49265      41.751036     -11.240277      87.982763      3690636.6    
     28000   300.15416      0.89470038     0.67667597     1.5713764      188.81634      107.48278      182.03842     -232.01599     -160.85624     -59.98015       80.085046     -81.360134     -60.039095      3694379.6    
     29000   300.19595      0.89482494     0.67646613     1.5712911      188.80748      107.43325      182.06071      413.36773      392.57377      44.482562     -63.121527      142.59481      20.749136      3692956      
     30000   300.28454      0.89508903     0.67758708     1.5726761      188.88456      107.45531      182.10681      77.44174       24.263186     -215.34584      104.42509     -141.75849      35.224417      3696157.8    
     31000   300.04796      0.89438382     0.67604415     1.570428       188.76966      107.46783      181.95507      297.449       -3.7867571      31.679694     -113.70696     -14.359561      52.543841      3691261.8    
     32000   299.15155      0.8917118      0.67520859     1.5669204      188.79829      107.46932      182.04585     -193.0329       160.38815     -90.20136       271.07091      74.546065      29.688485      3693714.4    
     33000   300.43469      0.89553658     0.67799139     1.573528       188.73962      107.47784      181.99001      153.16284     -23.011525      34.966703      177.78345      112.74231     -14.351027      3691726.8    
     34000   300.21034      0.89486784     0.67593208     1.5707999      188.75871      107.43895      181.86502     -29.377344      62.988097     -85.707418     -6.4276547     -39.832106     -80.341006      3688229.5    
     35000   300.22796      0.89492036     0.67691876     1.5718391      188.78578      107.46085      181.97074     -130.62944     -67.813544     -37.50117      -145.4821       36.352644     -34.780664      3691654.8    
     36000   299.99761      0.89423373     0.67548312     1.5697169      188.8799       107.47626      181.95938     -92.069443      148.18126      3.6394708     -62.865255      63.651672     -6.9918236      3693794.6    
     37000   300.32926      0.89522232     0.67565709     1.5708794      188.71674      107.41581      181.99197     -10.515232     -80.855973     -164.41544     -158.96538     -34.476644      37.082086      3689188.7    
     38000   300.10071      0.89454106     0.67686614     1.5714072      188.8243       107.41172      182.09423     -333.83317     -165.49437     -76.4157       -309.22081      40.405622      94.251773      3693224.6    
     39000   300.54805      0.89587449     0.67488057     1.5707551      188.84142      107.39297      182.00915     -83.542186     -110.58917     -102.15268     -210.75134      46.491518      82.887364      3691189.5    
     40000   300.02766      0.8943233      0.67456454     1.5688878      188.76906      107.41092      182.08547      197.7301      -87.467079     -138.14541      72.326025     -12.983386      83.04631       3691938.9    
     41000   300.42726      0.89551442     0.67598232     1.5714967      188.8197       107.44536      182.04581      153.64128      230.66991      88.626262     -123.76365      39.31764      -86.438187      3693308.9    
     42000   300.18925      0.89480498     0.67377769     1.5685827      188.74709      107.43684      182.02927      160.03076     -13.834525     -47.846257     -29.906398     -6.9277437     -27.164733      3691260.8    
     43000   300.16019      0.89471836     0.67499552     1.5697139      188.78362      107.45027      182.00389     -119.81456     -128.77371      52.60871      -70.714371     -115.9509       118.55425      3691921.9    
     44000   299.71975      0.8934055      0.67454688     1.5679524      188.681        107.47578      182.05346      39.267152     -187.85755      113.3157       23.366737     -47.548159      23.528179      3691796.1    
     45000   299.91098      0.89397551     0.67675785     1.5707334      188.77461      107.43         181.94276     -299.36531     -288.10395     -170.12476     -251.58467     -71.353711      105.09946      3689809.3    
     46000   299.69575      0.89333396     0.67387092     1.5672049      188.72585      107.40033      182.01744      68.456181     -310.73962      139.98317      104.05156     -59.496336     -18.486125      3689351.5    
     47000   299.84822      0.89378842     0.67416485     1.5679533      188.74092      107.42026      182.04689      247.18481      373.24632      13.115169      23.30118       35.417114     -97.874005      3690927.7    
     48000   299.85234      0.8938007      0.67587965     1.5696803      188.82761      107.42563      182.03499      75.509312     -86.064447      38.498771      8.9665731     -25.924403      167.59193      3692566.4    
     49000   299.61266      0.89308628     0.67616382     1.5692501      188.74792      107.4048       182.03495     -59.996566      190.05036     -258.65902      32.939656      44.501911     -75.558155      3690291      
     50000   299.54629      0.89288844     0.6755794      1.5684678      188.80866      107.44838      181.92888     -158.22627      201.49742     -41.826342     -0.2396972     -155.4278       2.9367824      3690824.7    
     50066   300.15078      0.8946903      0.67420195     1.5688923      188.82297      107.46697      181.92551     -10.655466      64.828491      210.97228     -40.857641     -131.48732      53.938005      3691674.7    
Loop time of 769.249 on 256 procs for 50000 steps with 414720 atoms

Performance: 5.616 ns/day, 4.274 hours/ns, 64.998 timesteps/s, 26.956 Matom-step/s
99.4% CPU use with 256 MPI tasks x no OpenMP threads

MPI task timing breakdown:
Section |  min time  |  avg time  |  max time  |%varavg| %total
---------------------------------------------------------------
Pair    | 339.09     | 344.44     | 350.96     |  12.1 | 44.78
Bond    | 15.171     | 15.473     | 16.008     |   3.4 |  2.01
Kspace  | 105.67     | 117        | 124.14     |  38.0 | 15.21
Neigh   | 170.6      | 175.88     | 179.98     |  21.3 | 22.86
Comm    | 73.85      | 86.433     | 105.77     |  94.6 | 11.24
Output  | 0.021103   | 0.03996    | 0.055147   |   4.9 |  0.01
Modify  | 19.263     | 25.842     | 30.257     |  62.2 |  3.36
Other   |            | 4.144      |            |       |  0.54

Nlocal:           1620 ave        1644 max        1596 min
Histogram: 2 7 20 45 52 58 38 24 8 2
Nghost:        8469.58 ave        8581 max        8380 min
Histogram: 11 17 40 44 42 43 27 23 6 3
Neighs:         383148 ave      390961 max      377327 min
Histogram: 13 24 28 53 45 45 21 18 7 2

Total # of neighbors = 98085975
Ave neighs/atom = 236.51132
Ave special neighs/atom = 9.4
Neighbor list builds = 6916
Dangerous builds = 1
unfix           1
undump          1

variable	yzv 	equal	yz
variable	yzzo	equal	${yzv}
variable	yzzo	equal	-6.30576165965616

#========================DEFORMATION
reset_timestep  0
dump            1 all custom ${dump_steps} shear.*.dump element id mol type x y z
dump            1 all custom 30000 shear.*.dump element id mol type x y z
dump_modify     1 element ${ele_string}
dump_modify     1 element C C H
compute         cc1 all chunk/atom molecule
compute         myChunk all com/chunk cc1

fix             1 all nph x ${patm} ${patm} ${pdamp}  y ${patm} ${patm} ${pdamp} z ${patm} ${patm} ${pdamp} xy ${patm} ${patm} ${pdamp} fixedpoint ${xcm} ${ycm} ${zcm}
fix             1 all nph x 1 ${patm} ${pdamp}  y ${patm} ${patm} ${pdamp} z ${patm} ${patm} ${pdamp} xy ${patm} ${patm} ${pdamp} fixedpoint ${xcm} ${ycm} ${zcm}
fix             1 all nph x 1 1 ${pdamp}  y ${patm} ${patm} ${pdamp} z ${patm} ${patm} ${pdamp} xy ${patm} ${patm} ${pdamp} fixedpoint ${xcm} ${ycm} ${zcm}
fix             1 all nph x 1 1 1000  y ${patm} ${patm} ${pdamp} z ${patm} ${patm} ${pdamp} xy ${patm} ${patm} ${pdamp} fixedpoint ${xcm} ${ycm} ${zcm}
fix             1 all nph x 1 1 1000  y 1 ${patm} ${pdamp} z ${patm} ${patm} ${pdamp} xy ${patm} ${patm} ${pdamp} fixedpoint ${xcm} ${ycm} ${zcm}
fix             1 all nph x 1 1 1000  y 1 1 ${pdamp} z ${patm} ${patm} ${pdamp} xy ${patm} ${patm} ${pdamp} fixedpoint ${xcm} ${ycm} ${zcm}
fix             1 all nph x 1 1 1000  y 1 1 1000 z ${patm} ${patm} ${pdamp} xy ${patm} ${patm} ${pdamp} fixedpoint ${xcm} ${ycm} ${zcm}
fix             1 all nph x 1 1 1000  y 1 1 1000 z 1 ${patm} ${pdamp} xy ${patm} ${patm} ${pdamp} fixedpoint ${xcm} ${ycm} ${zcm}
fix             1 all nph x 1 1 1000  y 1 1 1000 z 1 1 ${pdamp} xy ${patm} ${patm} ${pdamp} fixedpoint ${xcm} ${ycm} ${zcm}
fix             1 all nph x 1 1 1000  y 1 1 1000 z 1 1 1000 xy ${patm} ${patm} ${pdamp} fixedpoint ${xcm} ${ycm} ${zcm}
fix             1 all nph x 1 1 1000  y 1 1 1000 z 1 1 1000 xy 1 ${patm} ${pdamp} fixedpoint ${xcm} ${ycm} ${zcm}
fix             1 all nph x 1 1 1000  y 1 1 1000 z 1 1 1000 xy 1 1 ${pdamp} fixedpoint ${xcm} ${ycm} ${zcm}
fix             1 all nph x 1 1 1000  y 1 1 1000 z 1 1 1000 xy 1 1 1000 fixedpoint ${xcm} ${ycm} ${zcm}
fix             1 all nph x 1 1 1000  y 1 1 1000 z 1 1 1000 xy 1 1 1000 fixedpoint 85.02833104526 ${ycm} ${zcm}
fix             1 all nph x 1 1 1000  y 1 1 1000 z 1 1 1000 xy 1 1 1000 fixedpoint 85.02833104526 49.325075314052 ${zcm}
fix             1 all nph x 1 1 1000  y 1 1 1000 z 1 1 1000 xy 1 1 1000 fixedpoint 85.02833104526 49.325075314052 86.2722299428765
#fix             1 all nph tri ${patm} ${patm} ${pdamp}
fix             2 all ave/time 2 100 ${thermo} v_strain v_sxx v_syy v_szz v_sxz v_syz v_sxy v_pe file output.dat
fix             2 all ave/time 2 100 5000 v_strain v_sxx v_syy v_szz v_sxz v_syz v_sxy v_pe file output.dat
fix             6 all ave/time 2 100 ${thermo} c_myChunk[*] file center.dat mode vector
fix             6 all ave/time 2 100 5000 c_myChunk[*] file center.dat mode vector
fix             7 all print ${thermo} "${xhi} ${xlo} ${yhi} ${ylo} ${zhi} ${zlo} ${xy} ${xz} ${yz}" screen no file box_parameters.dat
fix             7 all print 5000 "${xhi} ${xlo} ${yhi} ${ylo} ${zhi} ${zlo} ${xy} ${xz} ${yz}" screen no file box_parameters.dat


#======================== load
fix             3 all deform 1 xz erate ${srate} units box remap x flip no
fix             3 all deform 1 xz erate 2e-07 units box remap x flip no
run             ${steps}
run             1500000
PPPM initialization ...
  using 12-bit tables for long-range coulomb (../kspace.cpp:342)
  G vector (1/distance) = 0.29202899
  grid = 32 32 60
  stencil order = 6
  estimated absolute RMS force accuracy = 3.4436319
  estimated relative force accuracy = 0.010370395
  using double precision KISS FFT
  3d grid and FFT values/proc = 2310 256
Generated 3 of 3 mixed pair_coeff terms from arithmetic mixing rule
Per MPI rank memory allocation (min/avg/max) = 16.4 | 16.41 | 16.41 Mbytes
   Step          Temp          KinEng         PotEng         TotEng           Lx             Ly             Lz            Pxx            Pyy            Pzz            Pxy            Pxz            Pyz           Volume    
         0   300.15078      0.8946903      0.67420195     1.5688923      188.82297      107.46697      181.92551     -10.655466      64.828491      210.97228     -40.857641     -131.48732      53.938005      3691674.7    
      1000   299.95559      0.89410847     0.67533589     1.5694444      188.87171      107.43033      181.99193      74.789859     -335.61704      29.752644     -141.5338       14.213924      53.29058       3692716.4    
      2000   299.82557      0.89372091     0.67592481     1.5696457      188.76005      107.40724      182.02669      144.67121      208.26211      203.01112     -76.353157      26.401874      135.13384      3690444.8    
      3000   299.51437      0.89279328     0.67403484     1.5668281      188.77443      107.41258      182.02554     -325.23796      0.28135511    -79.727307     -76.863236     -36.344655     -124.05799      3690886      
      4000   299.53506      0.89285496     0.67428393     1.5671389      188.80082      107.4329       182.07727     -13.9284       -87.526315     -207.26997     -27.433955     -14.877225      55.374563      3693149.9    
      5000   300.0128       0.89427902     0.67623155     1.5705106      188.79553      107.43767      182.07868      90.528718      110.08243      177.00978     -123.96114     -123.40593     -59.156901      3693238.8    
      6000   299.88196      0.89388899     0.67833475     1.5722237      188.81764      107.41407      182.0338      -385.4951      -20.03537       152.08325      99.460646     -96.103221     -23.280781      3691949.8    
      7000   299.26615      0.8920534      0.67438022     1.5664336      188.74824      107.41919      182.01272      81.58863       103.61917      5.3824823      133.7101       41.69653      -17.921608      3690341.2    
      8000   300.39437      0.8954164      0.67527291     1.5706893      188.76898      107.43973      182.07109     -382.43914      97.733036     -96.358242      85.661419     -92.715024     -39.711171      3692636      
      9000   300.08919      0.8945067      0.67415535     1.568662       188.68723      107.42593      182.03411      165.20392      220.52867      187.74874     -3.3975479      13.74905      -141.285        3689813.3    
     10000   300.25483      0.89500047     0.67641965     1.5714201      188.8053       107.45257      181.97325     -5.0739593     -100.0456       75.045113      116.17424      48.611329     -112.13016      3691803.1    
     11000   299.4354       0.8925579      0.67649449     1.5690524      188.84873      107.47388      181.95109     -25.467086     -99.315222      16.016898      99.372122      8.1772998     -37.039813      3692934.8    
     12000   299.99492      0.8942257      0.67394624     1.5681719      188.71585      107.40666      181.98411      166.63617     -87.642278     -8.6694829     -109.64765     -75.483586     -55.090702      3688697.8    
     13000   300.45287      0.89559076     0.67399038     1.5695811      188.67087      107.48932      182.11851      299.63923     -411.03399     -84.127211     -54.861563     -82.343195     -55.437314      3693382.3    
     14000   300.4908       0.89570384     0.67750503     1.5732089      188.83946      107.46425      182.01541     -508.1186      -154.05975      87.482166     -281.06932      58.144628      63.299988      3693728.2    
     15000   300.2241       0.89490887     0.67380253     1.5687114      188.8012       107.42499      182.01737     -394.65082     -154.27778     -20.718012     -16.06121      -57.779564     -33.139544      3691670      
     16000   299.93117      0.8940357      0.67650958     1.5705453      188.8231       107.43877      181.98788     -280.42117      20.051761     -21.980147     -227.04735     -28.689779      93.50023       3691973.9    
     17000   299.60441      0.89306169     0.67527532     1.568337       188.79773      107.45491      181.99864     -177.08009     -84.925555     -119.93131      128.93758      32.285793     -41.027569      3692250.7    
     18000   299.39319      0.89243208     0.67537099     1.5678031      188.79383      107.43535      182.12473      112.21176     -221.67842     -80.276062      177.52325      34.383759      11.578028      3694059.8    
     19000   299.78472      0.89359915     0.67543078     1.5690299      188.77682      107.44165      182.13711      233.95651     -146.29099     -337.44367     -55.534218      12.881036      91.031515      3694194.7    
     20000   300.00226      0.89424759     0.67491036     1.569158       188.8835       107.40046      181.94917      182.66455      502.56731     -66.048287      83.076723     -84.452506      100.93013      3691052.6    
     21000   300.05631      0.89440871     0.67508446     1.5694932      188.82076      107.44827      182.03128      163.64482     -411.69504     -75.229904     -49.38869      -49.399632      24.662884      3693135.1    
     22000   300.28042      0.89507674     0.67483225     1.569909       188.80665      107.42357      182.10469      64.305796      142.92748      105.56464     -144.39794      16.320705      58.442032      3693499      
     23000   300.71273      0.89636538     0.67548533     1.5718507      188.71506      107.41927      181.96684      223.06982      75.146644      59.973168     -15.497448     -41.426248      43.442152      3688765.1    
     24000   300.45479      0.8955965      0.67520391     1.5708004      188.76635      107.46097      182.00602     -305.90194     -17.893973     -86.825798      22.772512      35.733643     -49.290832      3691994.8    
     25000   300.19545      0.89482347     0.67432136     1.5691448      188.71987      107.47713      181.99176      3.0799711      35.095968      109.58635     -2.0275518     -130.17512     -91.705874      3691351.7    
     26000   299.6261       0.89312634     0.67591163     1.569038       188.74467      107.45689      182.00081      348.26745      135.32502      41.21649      -108.71344      1.2518701     -99.80456       3691325      
     27000   300.32274      0.89520288     0.67438427     1.5695871      188.71502      107.42988      181.86578      29.301811      118.37184      176.39979     -98.980648      7.7215734      156.9049       3687080      
     28000   300.02164      0.89430537     0.67764357     1.5719489      188.79007      107.45092      181.98425      221.80559     -19.568193     -20.746676     -174.29451     -136.30935     -36.508308      3691672.1    
     29000   299.92652      0.89402182     0.67695148     1.5709733      188.76107      107.4208       182.12854     -4.0376793     -139.31082     -88.769825      71.862837     -17.86126       6.0304879      3692995.9    
     30000   299.85616      0.8938121      0.67494604     1.5687581      188.68214      107.48181      182.07701      209.91081     -134.88558     -56.599088      0.089656654    32.510849     -148.30815      3692503      
     31000   300.7985       0.89662104     0.675341       1.571962       188.77206      107.47912      182.037        46.666633     -423.03003     -112.43544     -4.3622008     -7.3432161     -55.387137      3693358.8    
     32000   299.84235      0.89377093     0.67555697     1.5693279      188.77024      107.44768      182.02496     -1.8384369     -275.97244     -51.889269     -10.664719     -38.507549      72.903037      3691998.4    
     33000   300.38994      0.8954032      0.67456491     1.5699681      188.80912      107.44644      182.02219     -35.268039      103.26881      48.718953     -51.595596     -29.424522      127.62158      3692660.1    
     34000   299.9923       0.89421792     0.67406693     1.5682848      188.75964      107.45183      181.95921      58.423768      27.537371     -268.36321      23.737353     -6.2551884      81.553235      3690600.2    
     35000   299.88943      0.89391126     0.67211708     1.5660283      188.73666      107.41506      182.03778      494.77029      325.82203     -0.28784004    -124.48158     -120.15955     -102.35464      3690481.2    
     36000   300.0495       0.89438842     0.67708018     1.5714686      188.84164      107.41138      182.0463       420.4136       314.37467      210.45887      38.460689     -171.88081     -36.173331      3692580.1    
     37000   300.06887      0.89444615     0.67581035     1.5702565      188.74763      107.4256       181.98771     -139.84585     -57.528512     -47.028859     -45.478292     -84.012305     -75.104983      3690042.2    
     38000   300.23204      0.89493252     0.67441687     1.5693494      188.75462      107.47567      181.89513     -198.09973     -72.219247     -129.67719      79.494207      43.927806     -153.33625      3690020.9    
     39000   299.71892      0.89340301     0.67294725     1.5663503      188.67649      107.4541       181.92493      202.17697      110.12132      79.807388     -31.320609      44.815652      169.03598      3688357.2    
     40000   300.17522      0.89476316     0.67514707     1.5699102      188.75421      107.49152      182.08277     -132.67959      44.62738       155.45668     -49.569892     -64.059659     -59.548847      3694364.1    
     41000   300.53718      0.8958421      0.674875       1.5707171      188.85955      107.43944      181.97698     -401.45775     -90.676355      101.69287      13.214452     -76.899736     -1.2085701      3692488.4    
     42000   300.17741      0.8947697      0.67531542     1.5700851      188.74432      107.41758      181.90868      93.847415      32.718127     -39.733697      3.2786022      54.293101      30.485444      3688099.8    
     43000   299.5795       0.89298743     0.67600696     1.5689944      188.80722      107.4388       181.99997     -150.22083      207.75719      186.8894       107.23629     -13.753133     -21.899225      3691909.6    
     44000   300.46909      0.89563913     0.67557386     1.571213       188.73917      107.4467       182.01875      232.77898     -146.07225      226.56635      88.464976     -30.727595      64.685534      3691231.2    
     45000   299.60016      0.89304901     0.6753093      1.5683583      188.73533      107.44445      182.05207      454.92201     -24.737299      10.379832      0.33162747    -35.265042     -27.199233      3691754.5    
     46000   300.5442       0.89586301     0.67524454     1.5711076      188.71553      107.44242      182.09987     -20.820023     -96.111204      115.48843     -189.41946      8.5458704     -115.39247      3692266.9    
     47000   299.45654      0.89262092     0.67565262     1.5682735      188.84076      107.46856      182.03577     -55.290765     -216.58697     -187.75575      102.86562     -41.062083      28.395315      3694314.7    
     48000   299.97125      0.89415515     0.67539635     1.5695515      188.74666      107.47201      182.03095     -170.78682      95.650324     -160.4158       31.8672       -104.46327      59.745038      3692494.7    
     49000   299.9369       0.89405278     0.67373915     1.5677919      188.80811      107.45651      181.94069     -233.52562      77.359256     -317.02558     -1.4649206     -83.345421      27.970541      3691332.8    
     50000   300.11807      0.89459282     0.67471283     1.5693056      188.71033      107.43585      181.93657     -510.64525     -424.08636     -123.75015     -45.957626      8.9719012     -37.239819      3688628.4    
     51000   299.86951      0.8938519      0.673945       1.5677969      188.90206      107.39755      181.7982      -208.40528     -133.66013     -86.239232     -160.80561     -162.07853      8.5988281      3688252.6    
     52000   300.1423       0.89466503     0.6757264      1.5703914      188.73248      107.45087      182.06342      524.81206      198.88871      55.24569       89.906761      33.37467      -55.300228      3692149.6    
     53000   299.78615      0.8936034      0.67518059     1.568784       188.72791      107.42725      181.99838     -282.02403     -34.296136     -52.661603      81.341937     -188.04961     -17.565993      3689929.9    
     54000   300.20247      0.89484437     0.67445276     1.5692971      188.76949      107.47614      181.99436     -184.68197     -465.2041       164.89327     -142.5765      -10.179387     -74.167507      3692341      
     55000   300.26934      0.89504371     0.67622898     1.5712727      188.69819      107.48056      181.94301     -18.6091       -147.77113      93.184848      24.749902     -66.938788     -27.005161      3690056.7    
     56000   300.76973      0.89653528     0.67378619     1.5703215      188.66264      107.4656       181.94575     -91.213515      228.68563      61.006235     -72.109049     -72.490905      11.958908      3688903.4    
     57000   299.78598      0.89360291     0.67486069     1.5684636      188.75664      107.45713      182.05973      126.5483       160.48291      18.02826       37.537851      26.83511      -24.099597      3692762.3    
     58000   299.18676      0.89181675     0.67795546     1.5697722      188.73804      107.49454      182.07586     -74.574186      104.56948      125.12206      76.937019     -75.138221     -72.780291      3694011.2    
     59000   300.32459      0.89520839     0.67494893     1.5701573      188.75957      107.42185      181.96065      273.20882      117.41999      71.314052      133.51285     -202.21862     -125.61588      3689598.4    
     60000   299.87548      0.89386968     0.67435511     1.5682248      188.74241      107.46467      182.09636      0.16370419    -171.00347     -248.91809      168.83556      7.6615208     -52.984049      3693485.9    
     61000   300.53923      0.8958482      0.6739575      1.5698057      188.77009      107.4108       182.12784      87.568558      87.069528      5.7925489     -119.90913     -15.959481     -48.790522      3692814.5    
     62000   300.1955       0.89482362     0.67680319     1.5716268      188.78031      107.45141      181.95969      99.867315      133.90979      120.28988     -91.475157      2.1699478     -147.815        3690999.5    
     63000   300.30335      0.8951451      0.67681476     1.5719599      188.7511       107.505        181.97172     -74.363686     -221.57449     -68.950459      50.016702     -81.564703     -12.706999      3692513.1    
     64000   300.14899      0.89468497     0.67431747     1.5690024      188.70249      107.42731      182.00859      171.76893     -58.393016     -163.52157     -140.73789     -196.56357     -32.045804      3689641.7    
     65000   300.718        0.89638106     0.676352       1.5727331      188.73652      107.39708      182.03159     -75.10024       558.40625     -77.473139     -35.351325     -57.883887     -151.59419      3689734.9    
     66000   299.96804      0.89414559     0.67374146     1.567887       188.69414      107.41703      181.95267     -129.7468       247.30871      10.558646     -6.9533182     -19.244602     -116.76643      3687992.2    
     67000   300.23852      0.89495183     0.67301246     1.5679643      188.60983      107.47994      182.08351     -161.84311      230.24257      150.52388     -288.01838      19.193115      117.27243      3691155.8    
     68000   300.31982      0.89519419     0.67423754     1.5694317      188.71586      107.48312      181.95982      141.37622     -71.677611     -41.514773     -338.05699      51.338186     -124.5865       3690831      
     69000   299.98713      0.8942025      0.67373376     1.5679363      188.62848      107.48899      182.02333     -67.118339     -282.03051      155.6517      -9.4498181     -197.60312     -125.68461      3690611.4    
     70000   300.28467      0.89508941     0.67527294     1.5703624      188.8026       107.44423      182.03538      138.2156      -43.174872     -236.21106     -55.089548     -48.038181      61.850977      3692724.2    
     71000   300.6256       0.89610565     0.67599459     1.5721002      188.73157      107.45338      182.04882      59.990313     -93.67066      -64.554032      57.435232      21.431764      78.866698      3691921.9    
     72000   299.72256      0.89341387     0.67553401     1.5689479      188.75276      107.40586      181.83568     -41.405653      211.32342      224.83405      26.180642     -6.5336613     -24.469079      3686382.4    
     73000   300.4531       0.89559146     0.67323085     1.5688223      188.65281      107.45085      181.96332      45.030256      105.61765     -26.82044       112.15544     -94.383661      61.549465      3688561      
     74000   299.68285      0.89329549     0.67467802     1.5679735      188.71731      107.44781      182.01657     -27.645859      142.79866     -117.0176       14.968959     -85.452833      50.743238      3690797.5    
     75000   300.22802      0.89492053     0.67537243     1.570293       188.76056      107.46219      182.03676     -249.19048      89.977198      18.906025     -68.49856      -307.98017     -6.5656302      3692547      
     76000   299.96451      0.89413506     0.67393093     1.568066       188.72059      107.45648      182.05337      137.23566     -16.745523     -105.39163      122.97382      86.808418     -23.600153      3691906      
     77000   300.21633      0.89488568     0.67505873     1.5699444      188.68275      107.48967      181.89916      168.90529     -145.56918     -79.92953       145.13019     -7.487696      -94.999551      3689178.2    
     78000   300.2402       0.89495684     0.67532739     1.5702842      188.70981      107.49771      182.06632     -148.09914     -73.352473      25.169396     -44.216599     -155.38273     -98.583086      3693374      
     79000   300.35288      0.89529272     0.67731837     1.5726111      188.71283      107.47382      182.14317     -357.73638     -240.66921      34.261297      100.64738     -150.21926     -81.243781      3694171.4    
     80000   299.88903      0.89391009     0.67457259     1.5684827      188.71868      107.4281       181.94279      4.5188715      64.903587     -22.930954     -138.0572      -110.7317      -53.276823      3688651.6    
     81000   300.2928       0.89511365     0.67406241     1.5691761      188.81419      107.46873      181.98482      81.60631      -140.20095     -185.77679     -66.058019     -15.709719     -36.485757      3692766.9    
     82000   299.92451      0.89401584     0.67516636     1.5691822      188.75712      107.44671      182.01601      365.88315     -446.13827      58.460708      123.41409     -76.038926      5.6338107      3691527.1    
     83000   300.01537      0.89428668     0.67439351     1.5686802      188.69744      107.46454      182.02897     -27.579287      219.14015      54.784182     -9.4182408     -129.33484     -60.28796       3691235.2    
     84000   300.40023      0.89543387     0.67488429     1.5703182      188.79556      107.46557      181.98694     -0.47553352    -40.127915     -164.28662      123.68222     -95.711356      110.01736      3692337.1    
     85000   300.07897      0.89447624     0.67398316     1.5684594      188.71485      107.47652      181.87566     -125.06554     -261.58747      241.01908      211.37479     -70.633031     -9.4929896      3688877.7    
     86000   300.32919      0.89522211     0.67358301     1.5688051      188.69807      107.47223      181.9828      -29.564999     -120.78105      229.56937      87.062216     -116.61059     -68.103727      3690575.1    
     87000   300.19208      0.89481341     0.67540872     1.5702221      188.72944      107.45452      182.04996      190.53276     -255.59077     -157.3063      -114.70045     -75.668941     -54.371075      3691942.6    
     88000   300.21432      0.89487969     0.67326585     1.5681455      188.63996      107.44193      181.98625      297.60491      164.05609     -53.941694     -172.78507      21.76597      -102.90781      3688468.1    
     89000   299.54575      0.89288683     0.67313846     1.5660253      188.64629      107.4405       181.90565      314.82475     -221.49297      26.09911       87.880432     -154.30903     -73.160147      3686909.4    
     90000   299.4474       0.89259368     0.67442037     1.567014       188.68089      107.45324      182.01678      211.45268      20.848049      95.717318      34.928259     -119.95703     -114.34956      3690276.1    
     91000   300.42399      0.89550468     0.67268164     1.5681863      188.73939      107.43613      182.00975     -120.03964      221.53074     -158.77619      111.86626     -296.6323      -69.508814      3690690.1    
     92000   300.70888      0.89635388     0.67553376     1.5718876      188.69186      107.4241       182.0317       307.81417      110.22583      112.94809      98.546826     -35.901885     -17.613137      3689792.3    
     93000   300.40335      0.89544316     0.67637754     1.5718207      188.6702       107.46702      182.09327      274.92999     -65.247634      107.14799      28.800887     -89.178607      19.630136      3692091.2    
     94000   300.20141      0.89484123     0.67541305     1.5702543      188.71439      107.48202      182.02232     -23.012416      310.24882      217.06233      28.637673     -87.669559      18.087487      3692032.3    
     95000   300.58388      0.89598128     0.67514943     1.5711307      188.73663      107.46448      181.90466     -166.39153     -1.560984       247.92552      30.332748     -96.752897     -56.594396      3689478.2    
     96000   299.10434      0.89157108     0.67539395     1.566965       188.71366      107.52718      182.06985     -170.95531      95.395048      11.859615     -72.248263     -65.178242     -51.002024      3694533.5    
     97000   300.38511      0.89538879     0.67472154     1.5701103      188.71377      107.50417      182.11957      245.84291     -46.976844     -214.74844     -10.949036     -50.026848      22.012925      3694753.7    
     98000   299.60944      0.89307669     0.67224538     1.5653221      188.67914      107.43619      182.02617      42.225867      146.97534      109.67352     -52.59513      -236.65895     -31.554025      3689846.6    
     99000   299.97836      0.89417637     0.67653758     1.5707139      188.71924      107.45299      182.10505     -248.72495     -128.24585      59.234866     -40.902555     -53.355424     -24.420094      3692807.7    
    100000   300.15919      0.89471538     0.67725372     1.5719691      188.66157      107.4819       182.02308     -426.44955     -82.540352     -64.273082      31.082673     -171.9832      -52.533572      3691009.9    
    101000   299.70904      0.89337356     0.67527556     1.5686491      188.66286      107.48634      181.93067     -198.93246     -377.45998     -126.83536      149.48614      7.9793775      37.675555      3689313.8    
    102000   300.16069      0.89471985     0.67233224     1.5670521      188.68895      107.44469      182.04238      199.34864      70.748926     -40.092942      293.84731      36.648281     -68.949741      3690659      
    103000   299.78978      0.89361425     0.67380768     1.5674219      188.63883      107.47162      182.05874     -301.49691     -151.68095     -39.961325      163.30813     -41.601713      65.03908       3690935.3    
    104000   300.66823      0.89623272     0.67576173     1.5719945      188.67309      107.5486       182.0401       239.53394      103.8732      -83.933947      90.431482     -164.87795     -77.960434      3693871.7    
    105000   300.65606      0.89619644     0.67657586     1.5727723      188.77056      107.47809      182.03733     -72.33941      -312.47922     -312.8821      -208.25063     -215.72378     -84.865084      3693300.4    
    106000   300.27986      0.89507507     0.67488832     1.5699634      188.71528      107.47063      182.04552      466.0775      -408.35333     -56.65332       25.785081     -149.477       -78.520404      3692129      
    107000   299.55054      0.8929011      0.67567235     1.5685734      188.67678      107.45433      181.97372     -24.949361      112.80999      58.100563     -78.146121     -87.090372     -60.770603      3689360      
    108000   299.8034       0.89365485     0.67434378     1.5679986      188.63433      107.45122      181.94307      209.97706      83.849655      200.2348      -142.83992     -267.86346     -77.950456      3687802.2    
    109000   299.85967      0.89382257     0.67642886     1.5702514      188.74535      107.4677       182.01097     -203.38887     -63.132448     -0.35390612     227.03883     -138.94221     -59.112817      3691915.7    
    110000   299.94633      0.89408089     0.67550807     1.569589       188.76006      107.40622      181.99112      175.3          201.05917      154.66179     -12.992762     -202.43687      80.221723      3689688.6    
    111000   300.43704      0.8955436      0.67366973     1.5692133      188.68659      107.45762      181.99821     -56.017916     -138.33825     -198.97165     -155.1112      -11.440177     -94.775514      3690161.6    
    112000   300.0103       0.89427157     0.67503838     1.5693099      188.71811      107.42454      182.01858      25.4444        79.643604      53.438144     -200.81339     -71.416569      96.832684      3690054.7    
    113000   299.79796      0.89363863     0.67548417     1.5691228      188.73429      107.46478      181.98444     -191.86733      115.14774     -48.906188     -61.110461     -27.862196     -31.354744      3691061      
    114000   300.34212      0.89526065     0.67556158     1.5708222      188.62348      107.47413      182.04376      315.90525      159.3743      -181.50973      75.159398     -80.00316      -162.77955      3690417.3    
    115000   300.78874      0.89659193     0.67627009     1.572862       188.68905      107.45643      182.02797      141.25407      13.152794     -138.4406      -210.25458     -121.18777     -118.40495      3690772      
    116000   299.87152      0.89385788     0.6731478      1.5670057      188.62401      107.43261      181.98021      336.88489      272.20216     -33.78222       76.201864     -110.68828     -115.42332      3687714.1    
    117000   299.84461      0.89377768     0.67588672     1.5696644      188.69817      107.44762      182.01017     -231.09669      281.81505      142.89604      23.995217     -150.90501     -100.1398       3690287      
    118000   299.67965      0.89328597     0.67369341     1.5669794      188.71583      107.46442      182.06637      19.592752     -401.45345     -112.70842      68.23215      -102.58764     -74.501671      3692349.4    
    119000   299.74772      0.89348888     0.67523895     1.5687278      188.64173      107.4851       182.06265     -157.2257      -150.06041     -6.6036591     -157.12668     -74.322065      88.214073      3691534.3    
    120000   300.52515      0.89580622     0.67610839     1.5719146      188.66672      107.45788      182.02372      19.227553      3.8683771      20.253995      75.163118     -201.80599      30.747321      3690299.1    
    121000   300.38111      0.89537686     0.67431174     1.5696886      188.71642      107.44428      181.97858     -400.32507      346.2006      -92.227392     -15.617436      4.9707923      130.33984      3689888.7    
    122000   299.61058      0.89308006     0.67574263     1.5688227      188.65983      107.43989      182.06458      123.82638      32.747358     -231.4359       78.232469     -182.49451     -162.46589      3690374.5    
    123000   299.53674      0.89285997     0.67333265     1.5661926      188.70656      107.47769      182.01505      50.130071      29.599699     -103.79017      139.22962     -16.104283      14.955571      3691583      
    124000   300.31523      0.8951805      0.67523423     1.5704147      188.65368      107.48351      181.99265     -53.10423      -21.774284      32.698185      154.03677     -210.03143      9.421723       3690294      
    125000   300.14949      0.89468645     0.67556893     1.5702554      188.56543      107.46694      181.98913      303.59678      59.579809      22.225605     -185.58168     -212.68026     -25.110002      3687927.5    
    126000   299.86842      0.89384866     0.67542848     1.5692771      188.65922      107.44061      182.00746     -328.12835      118.6365      -155.72953      206.86779     -119.65129     -45.540208      3689229.5    
    127000   299.86231      0.89383043     0.67493004     1.5687605      188.74232      107.5032       181.95778     -16.193165      103.90003     -18.871995      108.62511      59.796497     -117.86868      3691996.6    
    128000   299.97408      0.89416359     0.67400203     1.5681656      188.67962      107.48408      181.9466      -158.33903      169.11555      87.350882     -85.998168     -103.98649      75.247183      3689887      
    129000   300.34453      0.89526783     0.67525621     1.570524       188.63796      107.53305      182.03727      22.243961     -229.22463     -54.045012      42.918189     -28.89172      -148.64037      3692592.3    
    130000   299.75264      0.89350352     0.67541179     1.5689153      188.57337      107.50172      181.99942      18.135755      3.3262329      88.811004      47.198052     -42.71317      -101.11708      3689485.4    
    131000   299.50921      0.89277792     0.67721215     1.5699901      188.64555      107.48852      182.09371     -104.64936      167.25863     -22.013054      55.445339     -131.08279      101.056        3692356.3    
    132000   299.75763      0.89351839     0.67614513     1.5696635      188.60104      107.513        181.87467     -39.218119     -234.38487     -71.871469     -93.937873     -104.11427     -86.702954      3687884.4    
    133000   299.59258      0.89302643     0.67414816     1.5671746      188.63893      107.47017      181.98693     -92.761587     -32.155661     -107.12797      101.21566     -116.18645     -4.5665394      3689431.5    
    134000   299.74742      0.89348798     0.67583135     1.5693193      188.69286      107.46819      182.12213     -314.47999     -76.296093     -129.83955     -43.614245     -283.06597      19.532805      3693160.2    
    135000   300.48496      0.89568644     0.67371487     1.5694013      188.73428      107.46385      182.10651     -256.74308     -60.892863     -98.855687      26.612619     -164.84908     -81.823613      3693504.8    
    136000   300.20795      0.89486072     0.67586041     1.5707211      188.69389      107.43817      181.99677     -240.31751      271.57365      32.779154     -95.195844     -177.41431      175.54895      3689607.2    
    137000   300.11593      0.89458644     0.67505313     1.5696396      188.68877      107.4836       182.0996      -356.00282     -617.27351     -82.263095      3.1156176     -142.72665     -57.667163      3693152.3    
    138000   299.8684       0.89384859     0.67649711     1.5703457      188.68         107.51287      181.97436     -362.5164      -214.55887      43.401021      190.31029     -62.940862      23.258588      3691446.1    
    139000   299.99288      0.89421964     0.67575724     1.5699769      188.62967      107.47915      182.02013      449.83816      431.46367      121.67231      52.281714     -93.672775      38.863325      3690231.8    
    140000   299.51016      0.89278074     0.67495213     1.5677329      188.63912      107.46473      182.06185      232.73438      257.63851      301.06575     -195.41635     -91.394724     -84.316957      3690767.4    
    141000   299.04942      0.89140736     0.67407781     1.5654852      188.73858      107.437        181.90558     -25.792074     -209.03966      211.64208     -253.07376     -185.51912     -175.81645      3688591.7    
    142000   299.98345      0.89419152     0.67521832     1.5694098      188.66935      107.43818      181.94034     -252.93894     -108.22936      100.08824      268.44427     -114.0308      -16.013897      3687983.6    
    143000   299.97966      0.89418023     0.67596571     1.5701459      188.65637      107.47438      182.0363      -110.84434      131.82905     -66.406208     -161.223       -42.344323     -93.616605      3690918.2    
    144000   299.82418      0.89371677     0.67557129     1.5692881      188.60095      107.48289      181.98314     -195.22316     -121.66207     -109.65804      117.62723     -204.33073     -30.700567      3689048.6    
    145000   299.76542      0.89354162     0.67565783     1.5691995      188.55552      107.49472      182.03433      14.886546      52.506606     -209.97154     -43.100072     -181.92892      66.740795      3689603.5    
    146000   300.52097      0.89579377     0.67707257     1.5728663      188.62498      107.49932      182.04255      152.65415     -0.83775213     49.184561     -53.734901     -124.6942      -17.910832      3691287.2    
    147000   299.71787      0.89339988     0.67478413     1.568184       188.65318      107.53131      181.96661     -171.63631     -81.782465      60.07987       82.963354     -130.3397      -77.253223      3691397      
    148000   300.76943      0.89653438     0.67254372     1.5690781      188.58853      107.45019      181.98646      233.5157      -124.34462      20.675623      18.976577     -177.73285     -35.112204      3687750.9    
    149000   300.22448      0.89490999     0.67759488     1.5725049      188.61406      107.52511      182.11287      74.073115     -54.442524      35.734296      141.54229     -376.75266     -33.492241      3693385.2    
    150000   300.72309      0.89639624     0.6790212      1.5754174      188.69601      107.48476      182.0153      -184.20792     -364.14289     -201.08702     -210.15037     -155.64294      59.090307      3691624.5    
    151000   299.85342      0.89380394     0.67235788     1.5661618      188.65283      107.48201      181.96849     -48.508525      473.58489     -103.05669     -57.511682     -213.5861      -110.47773      3689735.9    
    152000   299.62372      0.89311924     0.67535019     1.5684694      188.66472      107.49337      182.02429      264.99818     -205.04122     -14.32066      -126.55307     -124.95972      65.796356      3691490.2    
    153000   300.13357      0.894639       0.67498088     1.5696199      188.64076      107.49618      182.10637      253.2801       85.830539     -57.543586      146.38119     -211.46416     -13.60022       3692782.5    
    154000   299.94911      0.89408916     0.67447873     1.5685679      188.69759      107.44474      181.99581     -190.16517      63.196761     -137.06671     -107.82975     -311.47146     -71.903674      3689885.8    
    155000   300.26783      0.89503919     0.67416796     1.5692072      188.66303      107.457        182.03577      52.500627     -132.55988     -142.71556      21.716357     -148.43046     -100.36561      3690441      
    156000   299.76985      0.89355483     0.67470341     1.5682582      188.74309      107.4497       181.98818     -193.29984     -4.4316074     -12.402411      3.8099271     -171.02864      6.4027983      3690791      
    157000   299.42963      0.8925407      0.67489922     1.5674399      188.71578      107.44713      181.96184     -245.99071      251.72239     -46.231799      220.56041     -132.32283     -130.64051      3689634.7    
    158000   299.91426      0.89398528     0.67466199     1.5686473      188.72775      107.48683      182.05596     -376.791       -147.13351      97.867681     -45.852814     -210.08287     -24.111557      3693141.4    
    159000   299.67575      0.89327433     0.67440505     1.5676794      188.65904      107.49035      182.07096      111.72462     -55.554865     -80.098823     -130.82394     -131.39869     -137.83985      3692222      
    160000   299.83437      0.89374715     0.67271964     1.5664668      188.56739      107.47449      182.08565     -0.85969939     122.76577     -189.39776     -122.66265     -124.95393     -7.4124745      3690181.5    
    161000   300.25367      0.89499701     0.67805724     1.5730543      188.572        107.46302      182.0031       157.74067     -17.612449      152.07624      101.43165     -238.06044     -54.387722      3688204.8    
    162000   300.14203      0.89466421     0.67615978     1.570824       188.56446      107.52628      182.10608      187.95504     -30.453473      119.06275     -196.8699      -302.62627     -22.533549      3692316.3    
    163000   300.14269      0.8946662      0.67257411     1.5672403      188.6367       107.5056       182.04093      124.92049     -10.396837     -105.49949      159.6868      -213.18391     -66.143818      3691699.4    
    164000   299.63732      0.89315978     0.67567107     1.5688309      188.63079      107.45485      182.04837      39.244795      42.557677      110.76087      46.784148     -137.82522      19.884612      3689991.9    
    165000   299.81196      0.89368035     0.67317982     1.5668602      188.63772      107.48341      182.10952      155.8467       540.41513      64.16058       88.108818     -74.556846     -53.187668      3692347.9    
    166000   299.49367      0.89273159     0.67619396     1.5689255      188.76055      107.45898      182.07689     -430.62781     -273.72296     -137.58895      131.49539     -230.31775     -80.529166      3693250.6    
    167000   300.18909      0.8948045      0.67742584     1.5722303      188.68469      107.46096      182.17168     -115.10449     -171.98915      69.797631     -48.802165     -269.83214     -27.44283       3693756.5    
    168000   300.69851      0.89632297     0.67401787     1.5703408      188.58262      107.46466      182.0451       201.62851     -175.30943      212.88131      121.37257     -107.401        75.887731      3689319.8    
    169000   300.60839      0.89605434     0.67333966     1.569394       188.61975      107.47474      182.0085      -48.753054     -23.747701      111.61484      98.57591      -147.99046     -27.361837      3689650.6    
    170000   299.96631      0.89414043     0.676707       1.5708474      188.71343      107.4917       181.99742     -204.9344       36.618909      278.88376      150.0921      -157.66516      81.343863      3691840.9    
    171000   300.19133      0.89481117     0.67346839     1.5682796      188.77863      107.49953      181.98314      227.83889      149.4613       127.04454      94.24969      -193.14413      26.660127      3693095.6    
    172000   300.58153      0.8959743      0.67373759     1.5697119      188.55734      107.50312      182.0871       12.496626      281.25487      66.757138      81.953245     -112.41065     -31.806917      3690996.8    
    173000   299.7157       0.89339341     0.67483335     1.5682268      188.61548      107.49573      182.08143      247.46601      532.73869     -45.769019     -141.67892     -204.92894     -118.15668      3691766.5    
    174000   299.4037       0.89246339     0.67218359     1.564647       188.60692      107.46592      182.11462     -144.73576      61.607061     -96.042339     -159.90412     -58.923276     -118.03224      3691247.8    
    175000   300.22229      0.89490346     0.67531971     1.5702232      188.64566      107.49228      182.04717      210.93157      17.364809     -27.604018      56.81105      -161.87425     -172.52472      3691543.6    
    176000   299.94035      0.89406305     0.67409253     1.5681556      188.72061      107.47468      181.97536     -120.24732      179.21249     -78.788354      188.40751     -285.70714     -40.524379      3690949.3    
    177000   299.95487      0.89410633     0.67356145     1.5676678      188.5854       107.44925      181.99897      187.20571     -269.44751      20.439789     -97.465547     -189.96594      4.5839509      3687910.6    
    178000   300.09859      0.89453474     0.67444199     1.5689767      188.63475      107.49987      182.13881     -22.324254     -69.815351     -71.006927     -129.91401     -179.293       -108.86067      3693449.1    
    179000   299.63448      0.89315132     0.67465702     1.5678083      188.58372      107.48486      182.08255      195.47324      80.466455     -104.47746      107.55266     -259.53297     -41.250812      3690794.1    
    180000   300.50727      0.89575293     0.67515663     1.5709096      188.6332       107.49532      181.9788       239.00197     -199.53766      101.36581      20.116917     -263.94966     -65.294135      3690018      
    181000   300.45457      0.89559583     0.67443836     1.5700342      188.68622      107.47467      181.96163     -235.75953     -344.25981     -56.403821      60.445555     -276.81072      20.221023      3689997.8    
    182000   299.87627      0.89387206     0.67553177     1.5694038      188.6176       107.48575      182.12862     -9.7456721     -124.23911      42.234058      174.18437     -136.59334      113.42033      3692421.7    
    183000   300.00952      0.89426923     0.67570057     1.5699698      188.64526      107.50686      182.0795      -176.54978     -46.485475     -106.56234     -27.672255     -59.152622     -17.717974      3692692.2    
    184000   299.47328      0.8926708      0.67725469     1.5699255      188.60265      107.52832      182.14701      61.578752     -187.11791      3.3642599     -364.47668     -180.62937     -43.922743      3693964.3    
    185000   299.72873      0.89343225     0.67579491     1.5692272      188.69017      107.50976      182.03511      126.01751      185.18516      83.08096      -122.18906     -67.444272      95.563829      3692770.7    
    186000   300.15091      0.8946907      0.67660194     1.5712926      188.74359      107.51504      182.03112     -159.55687     -226.2733       56.561817     -347.75775     -188.56625     -64.337902      3693916.3    
    187000   299.94922      0.89408949     0.67571432     1.5698038      188.67075      107.53376      182.03465     -149.83553      60.261741     -52.202245     -17.880601     -212.87266     -122.84005      3693205.5    
    188000   300.06949      0.89444801     0.67723396     1.571682       188.56351      107.5608       182.0791       181.40496     -136.65597     -14.44959       69.063391     -177.33672     -49.95762       3692935.7    
    189000   300.39388      0.89541493     0.67661157     1.5720265      188.59447      107.49446      182.11378      107.23239     -83.579175     -221.19313      39.579854     -318.58169     -87.312013      3691967.3    
    190000   299.91753      0.89399504     0.67718791     1.5711829      188.61391      107.50515      182.10587     -71.392775     -111.23748      169.75536     -72.342846     -246.69992      1.437659       3692554.6    
    191000   300.30648      0.89515442     0.67332121     1.5684756      188.56722      107.49092      182.09725      26.114612      99.973844      25.212461      29.19887      -191.69877     -76.940401      3690977.4    
    192000   300.24387      0.8949678      0.67543538     1.5704032      188.58417      107.46676      182.00642      208.40342      53.850206      31.827569      99.492885     -181.42759      24.086421      3688638.6    
    193000   300.01819      0.89429508     0.67444696     1.568742       188.55176      107.4984       182.01217      117.80415     -15.838495     -106.01408      157.82923     -197.84679     -32.365077      3689207.1    
    194000   300.46514      0.89562735     0.67571825     1.5713456      188.57266      107.52302      182.14426      186.52559     -104.68993      0.8680783      100.0856      -176.84205     -37.74488       3693139.1    
    195000   300.16522      0.89473335     0.67434497     1.5690783      188.60878      107.51038      182.01698      112.32046      311.97945      69.999029      119.09871     -263.66422      40.977025      3690831.5    
    196000   300.17477      0.89476182     0.6735965      1.5683583      188.57996      107.44619      181.92153      168.04505      408.58995     -14.487164     -11.61026      -44.600128     -18.35075       3686130      
    197000   300.09445      0.89452241     0.67623297     1.5707554      188.69127      107.50203      181.9685      -185.50368      419.34305     -52.604528     -192.99077     -220.09         33.338912      3691175.4    
    198000   299.23214      0.89195203     0.67698143     1.5689335      188.66124      107.47827      182.12373     -114.67107     -79.33439      -1.9387159     -6.3132436     -47.194898      30.401523      3692919.9    
    199000   300.04748      0.89438239     0.67316268     1.5675451      188.72652      107.47232      182.02757     -152.47659      25.102911     -60.752012     -288.899       -306.52694     -69.782486      3692042.8    
    200000   300.45307      0.89559137     0.67471129     1.5703027      188.62071      107.47734      182.05296      63.820557      261.57748     -7.5431429      90.659955     -222.31784     -118.94105      3690659.9    
    201000   299.6296       0.89313678     0.67489106     1.5680278      188.53087      107.48114      182.01349      179.69041      378.09048      157.37892     -91.47198      -225.04035     -82.11497       3688232.7    
    202000   300.34955      0.89528279     0.67566943     1.5709522      188.56037      107.49668      181.97409      28.482364     -160.80516     -106.94898      7.4921549     -318.32051      101.19892      3688544.8    
    203000   300.10668      0.89455884     0.6771035      1.5716623      188.56048      107.50793      182.11718     -501.57149     -124.96948     -63.551651     -120.98863     -239.70269     -17.640864      3691833.2    
    204000   299.67668      0.89327711     0.67498044     1.5682576      188.62544      107.50207      182.11377     -100.25271     -65.272352      83.040901      23.428867     -198.66626     -35.571135      3692834.9    
    205000   299.50975      0.89277952     0.67497625     1.5677558      188.64708      107.45404      182.04921      130.0371       252.63094     -90.920192     -32.116428     -163.77145     -90.206595      3690299.6    
    206000   299.9653       0.89413744     0.6743935      1.5685309      188.59852      107.44613      182.0244      -163.09804     -115.35055     -25.293744      64.383767     -213.72765     -50.680921      3688575.3    
    207000   299.65087      0.89320018     0.67475552     1.5679557      188.59291      107.45457      182.06812     -149.21406     -114.71547      101.94122     -11.208124     -251.18861     -92.16091       3689641.3    
    208000   300.21467      0.89488075     0.67704651     1.5719273      188.64572      107.50094      182.05802     -243.86082     -227.59565      114.70584      115.85873     -73.548455     -132.77933      3692062.4    
    209000   299.80845      0.89366987     0.67436603     1.5680359      188.62586      107.50354      182.10438      48.043631     -292.0109       85.822237      71.525504     -145.84296      32.97623       3692703      
    210000   299.64551      0.89318419     0.67475755     1.5679417      188.62292      107.47986      181.9603      -170.30569      131.72638      111.58712     -104.48647     -289.03209      117.28468      3688911.2    
    211000   299.90784      0.89396616     0.67521268     1.5691788      188.67586      107.46979      182.0563      -61.615071     -226.81245      193.19096     -135.45651     -101.65508     -70.883234      3691547.6    
    212000   299.96557      0.89413822     0.67347472     1.5676129      188.61668      107.49951      182.05557     -38.069585     -208.96677     -59.47037       50.572203     -144.25473     -12.619951      3691395.1    
    213000   300.06564      0.89443653     0.67536518     1.5698017      188.70523      107.46615      181.97833     -276.68015      176.44983      280.1473       75.153582     -277.37616      49.766014      3690416.1    
    214000   300.62881      0.89611522     0.67457169     1.5706869      188.64626      107.47721      182.04634      87.548803      121.25859     -10.233571      275.57616     -215.96795      69.298146      3691021.1    
    215000   300.57049      0.89594138     0.67406254     1.5700039      188.63963      107.46674      182.07328      34.59377       82.963803     -41.13169      -311.96519     -338.77764     -51.016788      3691077.9    
    216000   300.37208      0.89534997     0.67578111     1.5711311      188.69208      107.45659      182.03587     -9.0350468      106.59487      53.053485     -9.0522249     -418.83194     -75.606968      3690997.1    
    217000   299.81182      0.89367993     0.67597438     1.5696543      188.62125      107.48764      182.06272      9.9493532      96.412571     -60.005405      17.942789     -103.25716     -82.853328      3691222      
    218000   299.68531      0.89330283     0.67498507     1.5682879      188.59307      107.47071      182.16265      98.899527      422.11711     -168.16634     -12.041396     -225.56081      8.0277684      3692114.9    
    219000   300.3986       0.89542902     0.67593701     1.571366       188.6254       107.52797      182.00757     -93.108745     -76.854608     -33.60784      -62.850474     -143.54155      80.132299      3691569.4    
    220000   300.21348      0.8948772      0.67519469     1.5700719      188.55849      107.48477      182.04416     -222.95135     -52.329532      206.86553     -66.922884     -178.27493     -104.32943      3689519      
    221000   299.67642      0.89327634     0.67463383     1.5679102      188.50763      107.53779      182.11096      67.36908       350.06922      22.913359     -49.282394     -182.84715     -19.928583      3691697.5    
    222000   300.21705      0.89488785     0.67785763     1.5727455      188.52839      107.53348      182.12503      257.44175     -80.156015     -16.015899      92.641578     -133.55679     -109.04403      3692241.4    
    223000   300.36566      0.89533081     0.67525923     1.57059        188.5268       107.50099      181.98132     -20.511969     -33.854656     -26.380505      51.826667     -163.80263     -21.689426      3688182.3    
    224000   299.89249      0.8939204      0.67459543     1.5685158      188.66586      107.44758      181.99487     -65.688366      211.07783     -142.51179      5.8325912     -156.11142      143.77896      3689343.4    
    225000   299.7755       0.89357166     0.67598401     1.5695557      188.62763      107.47028      182.07422      39.029415      376.54577      29.12897       109.37331     -255.50164     -106.4669       3690983.7    
    226000   300.47062      0.89564368     0.67622015     1.5718638      188.48602      107.54481      182.09137      168.18691      267.5289      -17.255429     -1.414292      -211.18201     -70.186871      3691118.2    
    227000   299.86748      0.89384583     0.67541913     1.569265       188.54873      107.55783      182.05291      93.386388     -108.15154      412.96453      36.059037     -186.20635     -217.28514      3692013.3    
    228000   299.914        0.89398452     0.67465029     1.5686348      188.59928      107.4798       181.92408      39.577327      9.0444792     -24.921018      54.967249     -227.76137     -148.8102       3687712.5    
    229000   300.19859      0.89483282     0.67512781     1.5699606      188.59968      107.48827      182.08637     -155.2927      -412.43658     -47.32292      -22.996776     -48.77774      -171.83351      3691301.1    
    230000   299.63852      0.89316335     0.67603349     1.5691968      188.54917      107.51248      182.1094       247.90754      0.18534953    -76.495942     -70.013364     -176.34878     -107.87559      3691610.6    
    231000   300.32661      0.89521443     0.6759408      1.5711552      188.62314      107.5021       182.16988     -5.9067061      232.34029     -84.796596      213.58623     -183.03106     -88.159035      3693928.7    
    232000   299.92216      0.89400884     0.67570856     1.5697174      188.59369      107.52096      181.99855     -231.81722     -160.08156      69.374468     -190.10718     -304.54695      25.87664       3690525.8    
    233000   300.14213      0.89466452     0.67481057     1.5694751      188.58703      107.48727      182.07048     -161.4257       68.349991     -29.117095      233.2394      -223.22739     -50.216253      3690697.1    
    234000   300.20066      0.894839       0.67463984     1.5694788      188.52138      107.5273       182.15939      35.224508     -292.67736     -258.89775     -1.0444324     -127.75551      125.43404      3692588.5    
    235000   299.91394      0.89398433     0.67480814     1.5687925      188.56746      107.50792      182.09117      10.469462     -71.680456     -5.2057951      38.196851     -102.09448     -92.589995      3691442.6    
    236000   300.13349      0.89463878     0.67570702     1.5703458      188.54611      107.4689       182.0366       178.09346      30.330113     -176.26315     -28.531968     -225.24348     -14.939621      3688579      
    237000   299.62366      0.89311905     0.67378692     1.566906       188.60132      107.51927      181.99906     -51.960645     -233.9887       276.12475     -155.70453     -223.75412     -48.569026      3690627.2    
    238000   299.82759      0.89372693     0.67489827     1.5686252      188.59377      107.50134      182.06097      26.577052      15.392236      109.69153     -20.29337      -81.862595     -107.57095      3691119.5    
    239000   300.1782       0.89477203     0.6781869      1.5729589      188.4821       107.50292      182.20534     -126.55551      40.866666      20.597472     -72.274251     -252.41456     -26.308085      3691913.2    
    240000   300.04542      0.89437623     0.67455295     1.5689292      188.66864      107.50348      182.03697     -91.218064     -58.467824     -265.05329     -97.825259     -143.78905     -104.46531      3692171.5    
    241000   299.45967      0.89263023     0.67426138     1.5668916      188.48817      107.51989      182.06981      313.83227      118.02772     -92.116383     -26.140919     -293.73824      2.4286469      3689867.9    
    242000   299.94992      0.89409159     0.67383914     1.5679307      188.55834      107.52791      182.08139     -59.466915     -144.62584      27.50727      -83.182516     -130.34776     -9.1760421      3691751.8    
    243000   300.10284      0.8945474      0.67547348     1.5700209      188.56188      107.50711      182.04837     -94.606584      210.23128     -84.265186      120.81995     -150.34484     -126.57856      3690437.8    
    244000   300.73118      0.89642036     0.67329464     1.569715       188.66009      107.49058      182.07559      72.575361      3.8105621     -1.1200548      99.776279     -205.07028      9.5682291      3692344      
    245000   300.30466      0.89514899     0.67528847     1.5704375      188.54831      107.45685      182.05247     -9.638774      -72.419454     -161.6137       25.719983     -201.70393     -52.476273      3688530      
    246000   299.17884      0.89179315     0.67468371     1.5664769      188.57449      107.50316      182.04038      250.05266      80.314893      112.49902     -80.274358     -331.23885     -7.4390894      3690387.1    
    247000   300.14308      0.89466735     0.6762791      1.5709465      188.55685      107.52733      182.11231      77.115152      77.063339     -124.98099      114.74805     -0.41677852    -30.661128      3692329.5    
    248000   300.51369      0.89577208     0.67618665     1.5719587      188.62832      107.54293      182.08516     -99.851764     -124.35883     -39.701055      47.833881     -304.59364     -106.87002      3693714.3    
    249000   300.5311       0.89582395     0.6758866      1.5717106      188.64076      107.47574      182.12768      267.55967      262.36539      18.388014     -211.69327     -251.35381      87.641062      3692512.4    
    250000   300.97835      0.89715711     0.6765578      1.5737149      188.64955      107.51661      182.07864      141.45866      455.54648     -31.094214      194.33029     -116.32403      63.737122      3693093.7    
    251000   299.93551      0.89404863     0.6760077      1.5700563      188.48099      107.53611      182.09699      86.480523      349.11076     -210.4464      -290.18421     -217.16409     -137.38501      3690835.1    
    252000   300.4004       0.89543439     0.67527219     1.5707066      188.55327      107.47777      182.08016      233.02969      35.493814      170.25994      180.06088     -362.35317      22.539961      3689906.5    
    253000   299.89094      0.89391578     0.67600871     1.5699245      188.58835      107.55977      182.12267     -200.77039     -104.71025      34.535902     -21.86282      -249.58208      24.472181      3694270.8    
    254000   299.19884      0.89185276     0.67734602     1.5691988      188.54852      107.54714      182.11578      278.89414     -228.34983     -93.231916      237.70466     -276.40728     -27.69542       3692917.4    
    255000   299.7298       0.89343545     0.67657163     1.5700071      188.47522      107.54289      182.10834      159.13245      201.57037      85.56221      -25.62745      -332.63387     -201.37177      3691184.9    
    256000   300.16476      0.89473198     0.67404989     1.5687819      188.56002      107.51461      182.00393      173.39943      171.02259      34.369986     -189.36684     -377.77437      1.6143169      3689757.9    
    257000   300.02431      0.89431333     0.67617424     1.5704876      188.61185      107.4678       182.03193     -159.82329      371.22301      278.64759      138.76289     -335.1082       23.577695      3689732.7    
    258000   299.86096      0.89382642     0.67596313     1.5697895      188.6451       107.50584      182.03833      88.15885      -181.04077      233.86382     -64.979386     -276.22499     -86.90848       3691819.2    
    259000   300.6202       0.89608955     0.67716952     1.5732591      188.61391      107.5008       182.13695     -16.146773      399.39061      79.712543     -191.38433     -237.45757     -23.904519      3693035.7    
    260000   299.98724      0.89420283     0.67744127     1.5716441      188.52088      107.5058       182.08596      15.230887     -160.0894       4.4741785      173.11566     -223.84967     -78.934165      3690352.2    
    261000   299.79269      0.89362292     0.67405018     1.5676731      188.59061      107.46235      182.08411     -52.752758     -124.70546     -62.109623     -70.709236     -365.19611     -93.211129      3690187.6    
    262000   299.88078      0.89388549     0.67900274     1.5728882      188.59364      107.51347      182.14321     -155.97531     -93.714199     -134.25481     -138.41436     -209.63124     -150.75992      3693200.7    
    263000   300.17169      0.89475263     0.67224622     1.5669988      188.63718      107.51878      182.10198      71.104126      74.871771      127.78262     -164.08968     -285.34891     -154.06798      3693399.4    
    264000   299.74343      0.89347606     0.67732221     1.5707983      188.58215      107.47335      181.97479      78.854976      449.05318      39.662895      6.2915256     -302.93121     -31.77581       3688184      
    265000   300.4578       0.89560547     0.67607454     1.57168        188.55086      107.5045       182.10498      182.54938     -20.701213      211.12821      91.54392      -234.73767     -50.891313      3691279.8    
    266000   299.61997      0.89310808     0.67617744     1.5692855      188.5528       107.5007       182.17501      185.81306      31.099232     -95.808267      45.000514     -231.22051      28.958873      3692607      
    267000   300.20147      0.89484139     0.67639937     1.5712408      188.49519      107.52537      182.21962     -124.94748      110.76769     -210.108        147.49861     -125.7766       162.3181       3693229.9    
    268000   299.45658      0.89262103     0.6749625      1.5675835      188.55119      107.53942      181.96542     -90.921197     -284.15341      198.17391      106.68221     -217.59499     -79.353824      3689655.4    
    269000   300.05371      0.89440095     0.67518683     1.5695878      188.55263      107.53868      182.17091      290.48062     -163.34672     -134.93992     -58.318142     -92.486695      71.497318      3693825.3    
    270000   300.36378      0.89532523     0.67517933     1.5705046      188.54844      107.52698      182.16636     -5.4515725      272.42366     -65.997228      154.45879     -276.17149     -6.8544075      3693248.7    
    271000   300.02275      0.89430868     0.6757776      1.5700863      188.52546      107.53039      182.09194      157.49896      222.63256      92.999952      41.478121     -251.68779     -47.490833      3691407.3    
    272000   299.62145      0.89311246     0.67568796     1.5688004      188.44914      107.55443      182.02206      207.93729     -9.9822729     -0.24541238    -187.49754     -191.2195      -84.33902       3689321.5    
    273000   300.07268      0.89445749     0.67429673     1.5687542      188.44627      107.52888      182.06382      211.91041     -138.72207      19.538743     -246.9139      -167.12        -56.813407      3689234.9    
    274000   300.06041      0.89442093     0.6760274      1.5704483      188.67609      107.5426       182.12211     -279.58477      190.47548     -3.6975009      17.497971     -337.65215      22.530717      3695388.2    
    275000   299.37346      0.89237325     0.67713465     1.5695079      188.63341      107.51587      182.11998     -153.81309     -187.50672     -132.54932      53.303324     -60.417997     -129.21148      3693590.9    
    276000   299.84985      0.89379329     0.67541874     1.569212       188.48387      107.53965      182.09975     -118.60641      2.1462276      260.58445      145.21269     -320.31236     -135.86638      3691069      
    277000   300.35128      0.89528797     0.67448577     1.5697737      188.50895      107.50729      182.12615      90.289524      356.75986      39.643927      188.81189     -393.9815      -164.36614      3690984.2    
    278000   299.5877       0.89301187     0.67602243     1.5690343      188.53218      107.5496       182.09114     -60.748298     -20.165572     -12.076771     -167.5788      -247.85941      41.443533      3692181.8    
    279000   299.63621      0.89315647     0.67368371     1.5668402      188.61502      107.47154      182.04522     -229.61781      86.387048      112.26641      107.3719      -227.92309      72.154995      3690192.6    
    280000   299.42574      0.89252911     0.67407923     1.5666083      188.46219      107.50034      182.11547     -27.567464      36.749686     -176.18688     -182.63984     -236.94642     -9.9742314      3689613.9    
    281000   300.28197      0.89508136     0.6754168      1.5704982      188.58866      107.4943       182.12266      406.3624       228.48856      76.394048      59.505168     -367.43049     -61.670101      3692027.8    
    282000   299.36039      0.89233431     0.67557276     1.5679071      188.56059      107.46345      182.13047      105.65181      343.24538      36.443865     -21.377879     -226.7688      -27.980298      3690577.3    
    283000   300.30419      0.89514759     0.67467581     1.5698234      188.54179      107.50795      182.11341      1.9541358      42.362823     -41.460154      12.424419     -350.53622     -28.391266      3691391.9    
    284000   299.84968      0.8937928      0.67819996     1.5719928      188.52298      107.52587      182.2279       45.497849      12.144324     -11.895934     -45.05457      -377.28987      67.969834      3693959.5    
    285000   299.12118      0.89162128     0.67469497     1.5663162      188.52194      107.54308      182.09816     -233.01439      97.452409     -118.162       -173.52369     -245.74226      12.627454      3691900      
    286000   299.97457      0.89416506     0.67911793     1.573283       188.53053      107.51474      182.13322      199.39257      108.65973     -106.91876      40.464566     -333.33702     -141.60941      3691805.9    
    287000   299.71937      0.89340436     0.67540892     1.5688133      188.52605      107.55103      182.24302      49.172283     -304.62161     -127.51526      159.57034     -276.09488     -191.34653      3695190.4    
    288000   300.46633      0.89563089     0.67620059     1.5718315      188.56313      107.5477       182.14404     -123.33776     -66.716015     -11.524169      88.423549     -278.94265      6.0173164      3693795.8    
    289000   299.26218      0.89204157     0.67699033     1.5690319      188.55809      107.54049      182.23441      133.63117     -258.83489     -220.83937     -62.466602     -318.05883     -92.917153      3695281.9    
    290000   300.14409      0.89467037     0.67587291     1.5705433      188.50584      107.53456      182.1051      -298.66314     -177.21836     -9.5675983     -171.71133     -339.37947     -122.88455      3691432.6    
    291000   299.50928      0.89277811     0.67548127     1.5682594      188.61916      107.54195      182.11195      181.36788      11.311835     -202.96281     -35.575674     -356.56701      73.173422      3694044.8    
    292000   299.79063      0.89361676     0.67546868     1.5690854      188.605        107.53057      182.11313     -42.234195      353.97893      103.97922     -82.824773     -414.23342     -89.545843      3693400.6    
    293000   300.41966      0.89549177     0.67575338     1.5712452      188.48103      107.54593      182.20689     -115.10201      28.803493     -37.28413       67.353336     -208.16574      102.30893      3693400.6    
    294000   299.68243      0.89329425     0.67588315     1.5691774      188.5228       107.49497      182.09652      66.391665     -110.87369     -108.60196      137.26494     -211.55349     -120.95204      3690231.8    
    295000   300.11338      0.89457881     0.67434261     1.5689214      188.57698      107.52046      182.07555     -90.120405      185.20456     -135.95437     -104.56575     -381.51397     -119.60633      3691742.7    
    296000   300.00092      0.89424361     0.67473018     1.5689738      188.49442      107.52914      182.01404      198.60013      558.06705      165.62861     -81.10197      -368.23795     -18.573165      3689177.5    
    297000   299.8773       0.89387513     0.67621344     1.5700886      188.48823      107.49782      182.2099       29.114601     -94.584176     -87.093168      44.453811     -200.99535     -73.419484      3691950.7    
    298000   299.95283      0.89410025     0.67533381     1.5694341      188.55949      107.47572      182.21137      246.33201      159.86484     -131.41154     -105.34535     -231.93553     -53.408715      3692616.7    
    299000   299.892        0.89391894     0.6748768      1.5687957      188.49493      107.54902      182.18133     -64.679347      44.99699       53.29286       147.91121     -318.30833     -99.234483      3693260.9    
    300000   300.64923      0.89617608     0.67550518     1.5716813      188.61247      107.51076      182.09451     -384.09409      409.28694     -30.4636       -108.26454     -306.0233      -122.1774       3692488.8    
    301000   299.97401      0.89416338     0.67548284     1.5696462      188.5085       107.53657      182.16079     -75.09135      -154.63167      53.875177     -294.54864     -194.13278     -165.95872      3692683      
    302000   300.09376      0.89452034     0.67806668     1.572587       188.48842      107.5147       182.16617      231.35018      395.5033       4.8408835      137.64313     -260.42812     -55.404497      3691647.7    
    303000   300.02621      0.89431898     0.67324577     1.5675647      188.4467       107.51331      182.06098     -277.52585      284.45272      136.88462     -22.586812     -375.54717     -148.87467      3688651.6    
    304000   299.98453      0.89419474     0.67401046     1.5682052      188.48219      107.51049      182.10693      54.161323     -36.283727     -30.435822     -87.586063     -223.19345     -163.6146       3690180.7    
    305000   299.364        0.89234507     0.67674033     1.5690854      188.54224      107.51515      182.24624      150.43672      287.56028     -51.828489      32.327625     -312.23742     -28.642258      3694340.4    
    306000   300.46741      0.89563413     0.67431963     1.5699538      188.57165      107.52233      182.07382     -366.00241      35.619542      69.820637      77.478156     -315.07036     -15.013055      3691667.3    
    307000   299.40982      0.89248165     0.67337763     1.5658593      188.53954      107.54395      182.00939     -27.344067      127.11349      234.72825     -83.426072     -278.206       -21.040787      3690474.6    
    308000   299.72439      0.89341932     0.67610862     1.5695279      188.55567      107.56789      182.1024       50.377782      129.31069     -15.012896      303.00452     -360.0462      -107.70906      3693498.6    
    309000   300.45746      0.89560445     0.67452959     1.570134       188.47712      107.55738      182.1572       276.39891     -134.86507     -313.97156     -138.09707     -289.51931      101.67204      3692710.1    
    310000   300.12259      0.89460628     0.67432311     1.5689294      188.53968      107.48604      182.14267      94.525057     -229.06222     -59.185727      86.281437     -295.27239     -179.86996      3691191.1    
    311000   300.40681      0.89545348     0.67721184     1.5726653      188.59177      107.50287      182.05583     -35.586567     -135.69719      19.657394      30.240008     -117.64815      72.194481      3691028.3    
    312000   300.23992      0.89495602     0.67570524     1.5706613      188.51078      107.51578      182.12903     -88.746522      128.00013     -156.95308      107.97524     -302.31595      46.400551      3691369.9    
    313000   300.00926      0.89426847     0.6764373      1.5707058      188.56917      107.53119      182.28156     -112.5174      -87.568984     -153.97693     -2.0906836     -341.5979      -148.02276      3696135.5    
    314000   300.13756      0.89465088     0.67559901     1.5702499      188.55147      107.49857      182.10716     -40.401516     -116.30516      85.891691     -206.08318     -323.85774      46.319903      3691132.5    
    315000   299.79486      0.89362938     0.67617375     1.5698031      188.54447      107.48073      182.06063      81.01464       6.3978165      67.391843     -95.87888      -253.06187     -223.58415      3689439.9    
    316000   300.22008      0.89489686     0.67503723     1.5699341      188.58211      107.49561      182.12362      207.21178      198.95509      122.40905     -8.9773374     -278.90705     -9.8013193      3691964.3    
    317000   299.70515      0.89336197     0.67792412     1.5712861      188.54052      107.51879      182.19789     -21.568032      48.797344     -82.287153      93.427869     -292.97079     -116.74596      3693451.5    
    318000   300.05418      0.89440236     0.67558371     1.5699861      188.57815      107.5264       182.12481     -7.0234304      147.13928      141.25052      20.315975     -356.69161      129.08462      3692968.5    
    319000   300.1535       0.89469842     0.67364531     1.5683437      188.51679      107.49146      182.16729      84.723351      129.28157      33.214575     -210.53133     -400.92831     -4.7659506      3691428      
    320000   300.13083      0.89463083     0.67640639     1.5710372      188.55392      107.56294      182.11022     -437.42058     -70.151755      101.8137      -184.76469     -293.0581      -95.715579      3693452.5    
    321000   299.41963      0.89251089     0.67672623     1.5692371      188.41297      107.54341      182.17695      99.79253      -180.43071     -144.73581     -96.322242     -206.65702      152.37039      3691373.7    
    322000   300.71521      0.89637276     0.6769239      1.5732967      188.50253      107.50401      182.21906     -321.78813     -148.20118     -152.39712      87.581957     -246.00427     -6.6607745      3692629      
    323000   300.38906      0.89540056     0.67573521     1.5711358      188.54476      107.54002      182.05505     -15.875973     -268.678       -37.600579      122.87265     -367.70402      54.667134      3691367.8    
    324000   300.28255      0.8950831      0.67626498     1.5713481      188.62111      107.51264      182.11711      120.45313      275.07599     -31.560941     -95.427653     -395.59887     -5.396838       3693181      
    325000   299.67327      0.89326694     0.67560791     1.5688748      188.53384      107.49336      182.2104       109.3548      -62.847884     -32.612871      67.522851     -379.70509     -135.97648      3692700.7    
    326000   300.41386      0.8954745      0.67696194     1.5724364      188.47828      107.4944       182.09796      263.28047      230.15685      100.33547      113.4675      -321.3667       37.281735      3689370.1    
    327000   300.50948      0.89575953     0.67509464     1.5708542      188.58347      107.48099      182.09183      145.14287     -88.346249      82.534312     -16.208558     -310.6643       38.527792      3690844.2    
    328000   299.53842      0.89286497     0.67659627     1.5694612      188.49647      107.51478      182.13716     -98.745215     -249.68221     -113.14133      137.45915     -304.15232     -16.451874      3691220.1    
    329000   300.10916      0.89456626     0.67707454     1.5716408      188.44255      107.56424      182.27601     -187.1348      -336.60438     -157.23583      245.51262     -323.41815      3.5003947      3694676.3    
    330000   299.85091      0.89379645     0.676653       1.5704494      188.53375      107.53726      182.10941     -182.20407     -110.50446     -71.470129      215.56999     -324.4711       126.23313      3692159.7    
    331000   299.64205      0.89317387     0.67542495     1.5685988      188.54081      107.49585      182.04752      146.76629     -147.58616     -172.05833     -10.828135     -231.85152     -33.354494      3689621.7    
    332000   299.74059      0.89346762     0.67595453     1.5694221      188.45796      107.54694      182.1736       279.29679      28.887158     -81.129066      31.138018     -460.71081     -100.68293      3692308.5    
    333000   300.30086      0.89513766     0.67608773     1.5712254      188.52855      107.52765      182.12741      207.51547     -147.53726     -10.211263     -21.105115     -342.99969     -189.49128      3692092.6    
    334000   300.16691      0.89473838     0.67665503     1.5713934      188.57489      107.52134      182.12725      422.14244     -253.37953      52.669102      163.62967     -321.89997     -27.676818      3692780.3    
    335000   300.05774      0.89441298     0.67581156     1.5702245      188.4619       107.52522      182.04908      184.44348     -225.19956      130.36799      22.104078     -222.27269      40.161977      3689116.7    
    336000   299.91404      0.89398464     0.67563667     1.5696213      188.53227      107.50423      182.15586     -51.823448      442.48874     -83.420883     -124.82869     -456.05556      118.03176      3691938.1    
    337000   300.18023      0.89477809     0.67355928     1.5683374      188.51935      107.51433      181.98078     -37.777988     -263.01273      177.17044      149.83489     -248.75143     -3.0373425      3688483.2    
    338000   299.98878      0.89420742     0.67667639     1.5708838      188.46359      107.49845      182.15224      7.9509207     -69.512025      127.91507      111.69819     -391.48478      11.002039      3690321.4    
    339000   299.56746      0.89295153     0.6773928      1.5703443      188.46304      107.5843       182.22628      170.88203      1.7659371      90.89899       125.16402     -481.20984     -115.80787      3694758.9    
    340000   299.69135      0.89332083     0.67515728     1.5684781      188.47136      107.56536      182.19364      326.36598      153.2788       127.75119     -105.17759     -288.10543      39.269394      3693609.7    
    341000   300.36509      0.89532913     0.67428625     1.5696154      188.48747      107.55797      182.1603       77.743082     -137.49037      80.381709      129.82827     -313.68135     -76.341928      3692995.8    
    342000   298.73164      0.89046013     0.67608525     1.5665454      188.42112      107.5165       182.18911      153.32642     -134.08698     -16.836094      181.39316     -291.62491     -60.490508      3690856.2    
    343000   300.17679      0.89476783     0.67410049     1.5688683      188.45587      107.50397      182.176       -123.10181      7.9615641     -12.888613     -7.6360656     -317.27917      22.377962      3690840.8    
    344000   300.43946      0.89555079     0.67684085     1.5723916      188.48193      107.52173      182.1424      -61.727314      108.85765     -50.631338      311.2623      -281.14901     -172.03882      3691280.4    
    345000   300.05083      0.89439238     0.67625618     1.5706486      188.53001      107.54496      182.23811     -71.220122      253.62978     -30.429603      96.402957     -241.38816      55.096849      3694960.2    
    346000   299.98224      0.89418791     0.67722537     1.5714133      188.52235      107.54439      182.21587     -70.849424     -166.18892      31.970148      61.21109      -311.63543     -85.318668      3694339.3    
    347000   299.86279      0.89383187     0.67804005     1.5718719      188.46225      107.53748      182.18479      88.738276     -61.846267      120.27676      237.56872     -317.76753     -79.514784      3692294.6    
    348000   300.47939      0.89566982     0.67341988     1.5690897      188.58971      107.57623      182.07533     -158.95897     -104.487       -3.2495451     -65.636825     -343.10468     -37.878456      3693902.3    
    349000   299.82943      0.89373242     0.67438257     1.568115       188.49987      107.55151      182.12037      15.695276     -3.8161893      57.901821      48.919969     -382.92402     -61.615592      3692207.5    
    350000   300.27703      0.89506663     0.67723787     1.5723045      188.53731      107.56636      182.23006     -52.302228     -162.67869     -157.78037      108.54844     -126.78751     -114.78095      3695675.2    
    351000   300.16858      0.89474337     0.67619675     1.5709401      188.50727      107.521        182.17975     -113.794       -306.19642      228.03025      137.98778     -291.23949      28.916474      3692508.5    
    352000   300.6511       0.89618167     0.67686984     1.5730515      188.50547      107.57757      182.08221     -16.732907     -30.762902     -119.05133     -83.948756     -356.03664      23.809902      3692437.8    
    353000   299.8127       0.89368254     0.67569547     1.569378       188.42839      107.54633      182.18061      254.18813     -190.97624      39.332618     -299.48826     -204.30923     -147.13338      3691850.4    
    354000   299.86565      0.8938404      0.67707215     1.5709125      188.3966       107.5198       182.14638      6.9291626      23.872603      23.439422     -104.44109     -192.94203      5.6237332      3689623.6    
    355000   299.65256      0.89320522     0.67497247     1.5681777      188.4782       107.54756      182.19655      233.36924      98.226018     -193.20538     -242.44035     -271.15481     -66.485988      3693191.7    
    356000   299.80957      0.89367322     0.67623859     1.5699118      188.39419      107.61418      182.2368      -507.32377      118.66361     -33.288803      47.325327     -278.1496      -48.957669      3694647.9    
    357000   300.39751      0.89542577     0.67691522     1.572341       188.6151       107.54809      182.18251     -84.240497     -127.00802      11.28678      -72.885423     -333.0605      -56.609109      3695607.5    
    358000   299.96982      0.8941509      0.67627379     1.5704247      188.49414      107.5273       182.13741      193.47034      53.659045     -127.30739      6.8029489     -270.65405     -137.00075      3691609.6    
    359000   299.63183      0.89314342     0.67672833     1.5698717      188.56735      107.53636      182.19955     -481.97316     -276.94233      35.448104      154.58113     -233.63101     -44.174023      3694614.3    
    360000   300.64283      0.89615702     0.67701153     1.5731686      188.47324      107.57966      182.19458     -163.79207      76.205853      134.23608     -179.31205     -246.79379     -13.909236      3694156.9    
    361000   300.75808      0.89650055     0.6745805      1.571081       188.37827      107.56894      182.21771      168.33937     -86.114381     -184.08269      65.52692      -282.08805      50.490996      3692396.1    
    362000   298.81082      0.89069614     0.67903795     1.5697341      188.49323      107.56119      182.14039     -330.97739     -281.96841     -102.55768     -148.6621      -464.91678     -131.79735      3692815.4    
    363000   300.53567      0.89583758     0.67623149     1.5720691      188.42497      107.59581      182.09387      83.485669      92.745487      134.34221      13.662395     -275.90751      39.141493      3691723.3    
    364000   300.16911      0.89474494     0.67660451     1.5713495      188.45075      107.54407      182.18932     -335.62631     -25.323609     -154.89794      128.37631     -238.28055      12.743991      3692387.5    
    365000   300.38476      0.89538775     0.67661504     1.5720028      188.47914      107.51561      182.25202      91.353721     -58.045221     -223.79853      116.4252      -328.88739     -72.749431      3693237      
    366000   299.6534       0.89320772     0.67736319     1.5705709      188.45785      107.54659      182.19416      100.69783      222.72149      174.91601     -80.792832     -446.04289     -135.94571      3692710.9    
    367000   300.19002      0.89480726     0.67563637     1.5704436      188.54613      107.54678      182.14401     -120.21251     -152.68659      60.927708      95.349236     -302.55248     -187.54165      3693430.5    
    368000   299.96769      0.89414454     0.67652915     1.5706737      188.45954      107.51995      182.24335     -40.045371     -48.845122     -100.92297      57.393929     -327.49949     -87.610515      3692826.3    
    369000   299.82359      0.89371501     0.67745846     1.5711735      188.53832      107.51153      182.26188     -113.18005      28.214509     -104.84859      23.535667     -383.52735      16.867774      3694456.1    
    370000   299.31862      0.89220981     0.67720699     1.5694168      188.46028      107.49375      182.15256     -168.62103     -70.736954     -54.386266     -256.58644     -262.97065      18.644482      3690101.6    
    371000   300.29851      0.89513066     0.67584199     1.5709727      188.50317      107.50856      182.21039     -159.57729     -58.895509     -357.47324     -142.9523      -232.08616      5.3749269      3692622.1    
    372000   300.29013      0.89510567     0.67476389     1.5698696      188.54421      107.49315      182.28514     -26.452207      201.49711     -294.55387      181.54981     -233.18853      34.173801      3694411.4    
    373000   300.10592      0.89455658     0.67591804     1.5704746      188.50522      107.49598      182.1976      -145.40033     -300.51972     -17.656862      113.63808     -309.52141      71.047587      3691970.8    
    374000   300.80113      0.89662888     0.67778776     1.5744166      188.42855      107.53936      182.1064      -138.93286     -128.02126     -55.550192      195.20269     -316.96785      42.627005      3690110.4    
    375000   300.09415      0.8945215      0.67553492     1.5700564      188.46115      107.58373      182.18527      135.79198     -323.16666     -130.61836     -77.146591     -377.32956     -154.12663      3693871      
    376000   300.00392      0.89425255     0.67685934     1.5711119      188.43311      107.53185      182.20882     -170.66009      16.363269     -60.325999     -18.390503     -376.60408     -59.415408      3692017.3    
    377000   299.42602      0.89252993     0.6776791      1.570209       188.46299      107.5705       182.26253     -251.04394     -165.55659     -148.42279     -115.21147     -283.91046     -52.598556      3695018.9    
    378000   300.07718      0.89447093     0.67453782     1.5690087      188.44882      107.53598      182.1189      -505.95607      51.102251     -92.918385      266.91526     -353.70669      3.8414528      3690644.7    
    379000   299.88083      0.89388563     0.67529516     1.5691808      188.44413      107.53826      182.19297     -258.84049     -212.93439      32.214424     -98.979191     -282.81189      13.791289      3692132      
    380000   300.26338      0.89502595     0.67496706     1.569993       188.43206      107.54029      182.26106      199.1514      -37.695707     -46.689419     -0.28234092    -305.86505     -23.201382      3693345.2    
    381000   299.57693      0.89297977     0.67586547     1.5688452      188.39838      107.49183      182.22203      136.27093      42.121294      67.57673       477.27893     -405.1973      -39.874983      3690230.7    
    382000   300.30738      0.8951571      0.67516139     1.5703185      188.46642      107.5226       182.20256     -187.36083     -415.02465     -101.95161      117.8952      -336.74963      68.039757      3692225.6    
    383000   299.37626      0.89238162     0.67598875     1.5683704      188.56419      107.52156      182.14999     -317.97918     -204.55698     -279.56996     -88.097347     -323.83749      44.292888      3693039.4    
    384000   300.07792      0.89447311     0.67403253     1.5685056      188.38428      107.5328       182.03977     -182.12349      137.5978       116.03221     -113.95159     -267.85485      8.0414093      3687668.7    
    385000   300.4013       0.89543704     0.67610005     1.5715371      188.49377      107.55244      182.26168     -106.35069     -110.53011      27.809998     -45.862674     -304.5873      -108.30958      3694984.5    
    386000   299.64048      0.8931692      0.67613391     1.5693031      188.37836      107.51845      182.21562     -8.1078513      84.931816     -7.4205288      175.57045     -274.50703      30.894106      3690622.4    
    387000   300.07305      0.89445861     0.67761295     1.5720716      188.45335      107.55844      182.18893      3.4144066      190.39384      175.33905      125.82669     -297.20864     -122.83358      3692923.9    
    388000   299.61918      0.89310572     0.67722152     1.5703272      188.4566       107.52497      182.12233      340.91681      218.11979      159.81404      129.25902     -348.2705       64.498771      3690488.5    
    389000   299.94552      0.89407847     0.67746342     1.5715419      188.43357      107.52705      182.15977      261.1799       53.455078     -23.110158      187.47718     -254.56701     -31.845747      3690867.4    
    390000   300.18519      0.89479288     0.675207       1.5699999      188.36257      107.55522      182.20975      188.05227      242.79502     -43.51663      -115.73095     -427.96437      42.579705      3691456.2    
    391000   300.21511      0.89488205     0.67746789     1.5723499      188.40096      107.51509      182.28857      391.56173      118.62025      13.698842      71.913137     -183.55479     -27.413789      3692427.6    
    392000   299.40888      0.89247884     0.67694249     1.5694213      188.47365      107.56049      182.30544      255.78121      57.444835     -111.75681     -172.33368     -332.03114      66.68108       3695753.9    
    393000   299.52427      0.89282281     0.67658613     1.5694089      188.51985      107.5398       182.14765     -259.0846       150.92261      91.717436      144.52665     -350.42097      28.650926      3692749.7    
    394000   299.78179      0.89359043     0.67492166     1.5685121      188.40001      107.54512      182.15033      342.43626      24.443931      1.9672473     -33.910958     -296.89983      23.725917      3690639.1    
    395000   299.69897      0.89334355     0.67678531     1.5701289      188.47072      107.55482      182.32426      59.015564     -135.76052     -125.4546      -131.20221     -375.82011      74.59668       3695883.1    
    396000   300.18992      0.89480698     0.67599272     1.5707997      188.49159      107.52333      182.12424      181.80542     -16.081557     -38.235276     -50.926654     -408.84235     -7.0922544      3691156.2    
    397000   300.01805      0.89429466     0.67503189     1.5693266      188.51177      107.5312       182.19483     -125.31512      24.881246     -65.085154      1.7372933     -479.50347      74.766733      3693252.5    
    398000   300.01006      0.89427085     0.67643209     1.5707029      188.40143      107.55178      182.3624      -201.89225     -446.12         113.2077      -100.47455     -437.51849     -57.103833      3695192.6    
    399000   300.24748      0.89497855     0.67489458     1.5698731      188.43064      107.51724      182.24817     -94.414663     -89.020759      10.473779      146.29002     -399.8729      -89.259994      3692264.4    
    400000   300.61524      0.89607477     0.67434669     1.5704215      188.45901      107.54395      182.12449      173.0603       118.74748      88.755361      22.498846     -385.00985     -32.196252      3691231.4    
    401000   299.6078       0.89307178     0.67549425     1.568566       188.47463      107.54431      182.19769      15.128016     -119.41951      151.12765     -50.379578     -518.19231     -74.17781       3693033.2    
    402000   300.16904      0.89474472     0.67753892     1.5722836      188.37209      107.55293      182.26283     -18.872637     -55.112542      27.30065      -94.897237     -283.58365      31.425351      3692639.7    
    403000   300.17663      0.89476735     0.67489904     1.5696664      188.39999      107.55253      182.25213      266.47095     -80.89949      -73.948054      107.79185     -502.556        150.56867      3692956.1    
    404000   299.91309      0.89398179     0.67496844     1.5689502      188.35801      107.57989      182.24193     -132.04865     -69.731933     -67.403511     -13.720191     -390.25421     -25.465713      3692865.5    
    405000   299.82412      0.89371661     0.67486697     1.5685836      188.47615      107.56363      182.18019     -4.5034855      31.605898     -146.09118      91.147851     -449.51422      69.306419      3693371.4    
    406000   300.49921      0.89572891     0.6751921      1.570921       188.45252      107.5283       182.18642      57.030951      127.16393     -118.35672     -107.34692     -262.92755     -66.271042      3691821.7    
    407000   299.80569      0.89366167     0.67633375     1.5699954      188.4016       107.52656      182.31729     -108.1943      -20.35659      -230.38679     -133.73148     -359.93879     -48.46209       3693415.6    
    408000   300.04014      0.89436051     0.67614282     1.5705033      188.51482      107.56908      182.20173      241.52117      122.35225     -40.123535      175.87541     -413.63635     -119.37851      3694753.4    
    409000   300.03682      0.89435061     0.67465797     1.5690086      188.44348      107.50479      182.17385      51.416838      378.04377     -118.74797     -34.525855     -382.75584     -10.083209      3690582.9    
    410000   300.29333      0.8951152      0.67742813     1.5725433      188.388        107.53592      182.26213     -72.163453     -179.31838     -108.84992      45.344889     -351.12077     -86.745281      3692353      
    411000   300.03421      0.89434283     0.67742625     1.5717691      188.40905      107.57771      182.30226     -125.75712     -248.59377     -184.32795     -84.131262     -427.18123     -60.221626      3695014      
    412000   299.56334      0.89293926     0.67765025     1.5705895      188.38137      107.54023      182.26187      304.10885      195.8435       169.4449       56.060444     -376.95881     -23.770958      3692365.8    
    413000   299.85856      0.89381926     0.6764402      1.5702595      188.49506      107.53091      182.24047     -458.70098      48.844762      3.6925287     -16.847641     -491.37259     -151.07335      3693840.3    
    414000   300.21625      0.89488546     0.67513358     1.570019       188.42403      107.54665      182.22058      120.36589      140.45545     -13.318855     -15.360218     -385.42699     -75.185331      3692586      
    415000   300.42175      0.89549801     0.67657018     1.5720682      188.4852       107.54996      182.24566     -253.66536     -221.5531      -49.509463      184.70503     -352.4012      -136.40799      3694406.9    
    416000   299.7288       0.89343245     0.67420489     1.5676373      188.48615      107.49486      182.24383      135.42337      24.403569     -34.518984      226.05517     -211.70538     -36.720667      3692495.5    
    417000   299.9628       0.89412997     0.67451295     1.5686429      188.43851      107.55739      182.22807     -122.79951      109.21481      77.71336       147.84729     -374.79886     -38.714002      3693390.3    
    418000   299.82095      0.89370715     0.67445923     1.5681664      188.35439      107.51724      182.23695      92.80241       323.72044      19.741588      35.68949      -261.4039       7.882597       3690543.2    
    419000   300.16904      0.89474472     0.67398098     1.5687257      188.49541      107.52833      182.22502     -220.45538      189.15846      27.974181     -168.81656     -393.11875      74.087167      3693445.5    
    420000   299.88098      0.89388607     0.67557066     1.5694567      188.52223      107.52005      182.26259      151.83148     -319.86978      131.94309      158.32309     -409.24077     -127.01719      3694448      
    421000   300.22473      0.89491074     0.67599991     1.5709106      188.4314       107.56144      182.26934     -87.157984     -305.7755       217.21273     -40.343188     -259.18828     -155.34135      3694226.2    
    422000   299.7906       0.89361669     0.67528102     1.5688977      188.35661      107.54391      182.30751      29.893342     -7.466205       69.89009       72.034169     -393.74462     -67.868885      3692931.6    
    423000   300.0516       0.89439468     0.67600599     1.5704007      188.40845      107.56306      182.27453     -67.923282     -34.315025      53.835967     -65.94507      -325.62449     -10.547559      3693937.3    
    424000   300.0728       0.89445787     0.67745837     1.5719162      188.51596      107.57781      182.16908     -468.03328     -99.13374       7.8686021     -2.3294361     -476.25933     -226.34319      3694413.4    
    425000   299.52098      0.892813       0.67573332     1.5685463      188.52941      107.55349      182.19882      17.757445      179.53779      166.62147     -107.98899     -242.38724     -135.22088      3694444.8    
    426000   300.18463      0.89479122     0.67563715     1.5704284      188.44124      107.56486      182.26247     -88.229011      416.15607      93.989896     -79.373799     -218.26056      41.91614       3694397.4    
    427000   300.35969      0.89531302     0.67580098     1.571114       188.46138      107.61197      182.24672     -130.28207     -344.64264     -32.239029      64.105262     -364.74961      64.362606      3696091.3    
    428000   300.278        0.89506951     0.67895126     1.5740208      188.42412      107.57675      182.32384      211.1568      -24.537806      45.261652     -143.79739     -228.23598     -33.683881      3695714.3    
    429000   300.27734      0.89506755     0.67700359     1.5720711      188.49017      107.5765       182.2562      -303.13294      42.299036     -29.360657     -230.98242     -408.64378      25.598119      3695629.3    
    430000   300.17847      0.89477284     0.67719118     1.571964       188.39528      107.57871      182.30781      101.22469     -248.44657     -24.85012       224.25075     -335.09278      5.3171094      3694890.8    
    431000   299.65871      0.89322355     0.67500636     1.5682299      188.40366      107.55443      182.386        3.5366324      0.42357291    -382.94199      101.51789     -273.25737      97.799506      3695805.8    
    432000   299.59427      0.89303144     0.67663903     1.5696705      188.4554       107.57522      182.31136     -194.14461     -70.170003      33.344228      150.86035     -277.87632      128.9254       3696022      
    433000   300.39463      0.89541718     0.67585536     1.5712725      188.39045      107.55569      182.28584     -333.95265     -19.590908     -21.145634      18.904396     -334.19145     -95.599051      3693560.3    
    434000   300.27647      0.89506496     0.67618474     1.5712497      188.36327      107.53756      182.09154      294.39959      218.32403     -55.870543     -206.3742      -466.8245      -50.154231      3688469.2    
    435000   299.54512      0.89288495     0.67652585     1.5694108      188.3854       107.55727      182.29837      114.58347      64.912926      120.43629     -64.125822     -399.3416      -40.75905       3693769.4    
    436000   300.54572      0.89586755     0.67521877     1.5710863      188.4345       107.54205      182.20765     -69.313511     -59.581964      126.87476      8.6337261     -339.04568     -90.072158      3692371      
    437000   299.99568      0.89422798     0.67805148     1.5722795      188.43502      107.54371      182.34568      35.133498      225.01771      35.899695      107.27441     -399.7105      -52.256         3695235.5    
    438000   299.56411      0.89294156     0.67742279     1.5703644      188.40159      107.57354      182.23679     -354.70018      166.69377     -7.854886       95.124074     -355.1995      -46.960011      3693397.7    
    439000   299.41696      0.89250292     0.67492918     1.5674321      188.41707      107.54772      182.32028      1.4060696     -186.74029      114.40916     -185.38174     -428.08383      33.410647      3694506.6    
    440000   299.55471      0.89291353     0.67359525     1.5665088      188.47916      107.54981      182.3128      -110.27245      151.60969     -9.6602273     -94.896813     -399.08752      84.314234      3695644      
    441000   300.4795       0.89567015     0.6777803      1.5734505      188.44944      107.55334      182.3474      -76.592761     -71.981583      60.461843     -113.63245     -492.3524      -80.440307      3695884.1    
    442000   299.76218      0.89353196     0.67749121     1.5710232      188.46639      107.56345      182.29254     -281.53725     -185.89143     -107.83939     -34.715748     -364.50954      38.140351      3695451.9    
    443000   300.08283      0.89448777     0.67506328     1.569551       188.43562      107.5214       182.24295      243.177        331.2651       165.6439      -80.86482      -386.93409     -43.086256      3692399.2    
    444000   299.99475      0.89422521     0.67474213     1.5689673      188.32161      107.50856      182.2542       431.25408      482.12197      67.044823     -42.557952     -415.67918     -49.683126      3689952.4    
    445000   299.90962      0.89397144     0.67588043     1.5698519      188.44132      107.5486       182.23096     -151.02489     -31.855017      203.0655       125.44766     -378.5934      -18.21122       3693201.9    
    446000   299.99515      0.89422639     0.67725742     1.5714838      188.45267      107.54882      182.28864     -50.970506     -10.958914     -203.99402     -51.69154      -467.00811     -125.21334      3694600.9    
    447000   300.18905      0.89480437     0.67744916     1.5722535      188.36804      107.59161      182.34151     -148.41112     -341.70868     -123.89312      83.320952     -431.87285      82.194685      3695482.7    
    448000   300.12921      0.89462601     0.67691849     1.5715445      188.45137      107.57457      182.28837     -63.723648     -149.33063     -75.480048     -67.290096     -365.59085     -124.5891       3695454.8    
    449000   300.06898      0.89444647     0.67603732     1.5704838      188.37707      107.58923      182.23763     -10.180093     -237.03304      31.826818      30.062101     -372.26249      6.6601424      3693472.9    
    450000   300.15195      0.89469378     0.67875303     1.5734468      188.33924      107.54534      182.3517      -87.485943      46.380072     -15.235921     -272.07127     -371.634        76.647979      3693535.1    
    451000   299.75042      0.89349691     0.67697368     1.5704706      188.43863      107.56922      182.29175     -579.09039     -248.69659     -86.213914     -45.693385     -405.84924      6.9703833      3695089.4    
    452000   300.45424      0.89559486     0.67635061     1.5719455      188.50929      107.53818      182.21748     -29.069382      221.70596      307.39222      62.032022     -403.72797      2.9701105      3693903      
    453000   301.14299      0.89764789     0.67744475     1.5750926      188.33305      107.58453      182.29814      135.73893     -168.09239      66.446697      11.107697     -474.26366     -24.665568      3693674.6    
    454000   299.74406      0.89347797     0.67698159     1.5704596      188.42414      107.58953      182.32843     -57.931737     -55.795957     -73.514678     -68.018239     -353.81951      95.110991      3696246.8    
    455000   300.36524      0.89532957     0.67502237     1.5703519      188.44793      107.54554      182.36743     -144.43227     -233.65087      30.82206       21.817088     -347.35773     -36.599839      3695992.4    
    456000   300.13374      0.89463951     0.67514738     1.5697869      188.36668      107.54535      182.23009      322.95207      384.52823      85.835134      42.271223     -382.31689      31.520593      3691610.1    
    457000   300.25611      0.89500427     0.67606232     1.5710666      188.30299      107.52372      182.30613      53.839287      32.30359       101.86365     -266.13894     -372.43667     -131.18189      3691159.2    
    458000   299.80571      0.89366171     0.67438652     1.5680482      188.31201      107.5227       182.2975       7.167812       364.42636      52.459772      131.97675     -296.02203     -19.086592      3691126.4    
    459000   299.66881      0.89325365     0.67664682     1.5699005      188.40324      107.53864      182.32769     -294.33784     -83.577595     -95.49896       87.903681     -347.11956      25.087877      3694073.3    
    460000   300.26499      0.89503076     0.67902723     1.574058       188.4073       107.53521      182.38982     -53.161736      214.96123      168.8099      -124.19311     -420.35427      81.410976      3695294.2    
    461000   300.28971      0.89510443     0.67709775     1.5722022      188.44857      107.5371       182.28816     -439.99351     -91.915969     -127.71353     -30.38928      -484.00242      4.9593474      3694108.4    
    462000   300.14161      0.89466297     0.67711783     1.5717808      188.41362      107.58045      182.29256     -262.46571     -257.04094     -186.87153     -180.35222     -462.59325     -63.754972      3695001      
    463000   300.11934      0.89459658     0.67810954     1.5727061      188.36992      107.58522      182.3062      -143.32306      211.07409     -60.252785     -40.709159     -389.11456      9.5144878      3694584.4    
    464000   299.55791      0.89292308     0.6761398      1.5690629      188.34288      107.57194      182.36569     -82.450273      122.28783     -59.680399     -20.207983     -366.2525      -45.693043      3694803.5    
    465000   300.75163      0.89648133     0.67838859     1.5748699      188.42405      107.53203      182.33852      187.63427     -7.0062451      70.024712     -279.38921     -293.21839      24.092895      3694474.2    
    466000   300.66554      0.8962247      0.67527812     1.5715028      188.34274      107.54132      182.20822      107.27731      415.20017      251.8833      -38.429234     -515.30439     -141.49687      3690559.7    
    467000   300.54089      0.89585315     0.67761111     1.5734643      188.38974      107.58378      182.50966     -58.880188     -208.84451     -59.310333     -76.260821     -374.60883     -64.77646       3699047.6    
    468000   299.76425      0.89353814     0.67546014     1.5689983      188.35953      107.53748      182.29446      117.29083      206.37218     -55.821644     -37.754777     -364.16208      31.18126       3692503.6    
    469000   299.83707      0.89375521     0.67556885     1.5693241      188.42012      107.52215      182.24152      512.20153      65.999784      114.24256      30.138137     -415.78478      52.107408      3692091.9    
    470000   299.65896      0.89322428     0.67677534     1.5699996      188.40939      107.57614      182.36204     -201.94255      45.727996     -32.13644      -102.74864     -409.60458      14.144375      3696178.2    
    471000   299.77565      0.89357211     0.67740193     1.570974       188.4164       107.57578      182.27923     -258.79629      14.324513     -15.590252      81.620701     -303.86963      67.271756      3694625.2    
    472000   299.90286      0.89395129     0.67878932     1.5727406      188.37118      107.56579      182.26049      74.072358      234.0158       81.5239        70.782443     -308.29799      64.162692      3693015.8    
    473000   300.54067      0.89585248     0.67890506     1.5747575      188.40288      107.61505      182.35255     -75.373154      9.5448657     -31.71248      -133.90659     -397.63669     -8.2506059      3697195.3    
    474000   300.05756      0.89441243     0.67762288     1.5720353      188.45387      107.58672      182.2112      -399.45425     -446.78128      73.60329       78.440347     -404.98336      107.88401      3694356.6    
    475000   300.46751      0.8956344      0.6778663      1.5735007      188.4301       107.57174      182.28839     -301.18936     -238.17883     -201.24305      41.503072     -242.34366      120.14719      3694940.9    
    476000   299.69929      0.89334451     0.67721997     1.5705645      188.38561      107.55665      182.38362     -171.3879       56.799137     -42.210023     -70.274259     -236.13106     -8.1175824      3695479.8    
    477000   299.79552      0.89363134     0.67398175     1.5676131      188.26821      107.55477      182.31431     -43.050042     -185.2633      -278.66984      76.894799     -313.41536     -35.363277      3691708.7    
    478000   299.87664      0.89387315     0.67796116     1.5718343      188.50821      107.5469       182.31538     -75.753949     -45.306711      224.2281       157.43733     -341.25524      42.6786        3696166      
    479000   299.86533      0.89383944     0.67937422     1.5732137      188.45138      107.55549      182.26731      36.888735      84.220895      11.158802     -44.044458     -413.98096     -10.829517      3694372.6    
    480000   300.04089      0.89436276     0.6751615      1.5695243      188.35876      107.57583      182.4458      -373.83872      107.5169       72.487449      62.94537      -331.30276     -19.085395      3696871.9    
    481000   300.10377      0.89455019     0.67777946     1.5723296      188.37274      107.57629      182.22937     -499.62946     -24.118771      77.043481     -27.368708     -445.41257     -83.123837      3692776.2    
    482000   299.85982      0.893823       0.67779137     1.5716144      188.297        107.59994      182.31693      94.627976     -123.46915      147.40826     -107.39002     -403.18406      84.314082      3693877.1    
    483000   300.52736      0.89581282     0.67787514     1.573688       188.36764      107.5215       182.25778     -258.84411     -235.81823     -158.27047      102.99409     -377.10062     -84.777852      3691370.9    
    484000   300.03084      0.89433278     0.6767972      1.57113        188.39281      107.53376      182.36121     -40.316511     -269.17413      23.254076     -61.617328     -467.81343     -76.964138      3694380.3    
    485000   299.79299      0.8936238      0.6777356      1.5713594      188.39146      107.58657      182.33478     -375.81164     -58.506617     -152.54049     -44.991319     -420.55481      76.985281      3695632.6    
    486000   300.61174      0.89606433     0.67797567     1.57404        188.44239      107.57306      182.36479     -130.62371     -147.26743      37.746074      95.369611     -426.71978     -31.964811      3696775.8    
    487000   299.65849      0.89322289     0.67715373     1.5703766      188.40088      107.55959      182.34662     -341.02698     -219.63831     -177.93479     -195.83759     -360.51104      7.4046937      3695130.5    
    488000   299.9629       0.89413027     0.67701032     1.5711406      188.39167      107.58186      182.20856      14.368298     -47.748726      63.949799     -5.0897649     -377.25197      62.542349      3692916.8    
    489000   300.4404       0.8955536      0.67616709     1.5717207      188.38028      107.5615       182.24563      56.097364     -245.06979     -86.006404      41.971164     -317.71951     -26.20962       3692745.8    
    490000   300.19094      0.89481001     0.67907126     1.5738813      188.35321      107.55825      182.41511     -136.16213      136.3701      -21.039367     -56.581043     -416.4554      -56.435933      3695537.1    
    491000   299.73883      0.89346235     0.67722582     1.5706882      188.35788      107.62459      182.40416     -61.741722     -238.75511     -6.0070694     -38.165387     -342.3365       73.841231      3697686.2    
    492000   299.41063      0.89248406     0.67563527     1.5681193      188.28425      107.58439      182.30752     -124.40972     -191.24009      24.836305     -3.9660313     -379.71864      40.706439      3692902.7    
    493000   300.08608      0.89449743     0.67719972     1.5716972      188.33887      107.57745      182.22598      145.77665      39.571837      74.31057       45.88733      -271.93427      71.975915      3692083.2    
    494000   300.05024      0.8943906      0.67856858     1.5729592      188.42495      107.56346      182.43479      9.8480428     -233.31484     -36.322702      163.30152     -409.52701     -31.567668      3697522.6    
    495000   300.06057      0.8944214      0.67793862     1.57236        188.43284      107.55123      182.40471     -192.96001      80.148917     -252.18751     -96.184051     -343.61829      109.18891      3696647.4    
    496000   299.82232      0.89371122     0.67648158     1.5701928      188.30228      107.54678      182.3454       255.98091     -212.04655      66.311819     -64.874012     -309.64711     -74.774164      3692732      
    497000   299.88257      0.89389084     0.67654778     1.5704386      188.31393      107.56825      182.34493     -295.24042     -78.075844      21.583895      36.009811     -467.46851     -72.076535      3693688.2    
    498000   299.60204      0.89305462     0.67581597     1.5688706      188.45463      107.56927      182.35526      162.84866      22.304701      71.934066     -87.374576     -363.56536      68.034049      3696692.7    
    499000   300.38477      0.89538779     0.67658208     1.5719699      188.38299      107.59155      182.37384     -244.38863     -208.41207     -143.36798     -68.512407     -314.39685     -152.42735      3696429.2    
    500000   299.91796      0.89399633     0.67761601     1.5716123      188.42193      107.62253      182.42899     -254.00377     -113.35678     -96.679067     -6.1856109     -448.26595     -36.148504      3699376.1    
    501000   299.93353      0.89404272     0.67777107     1.5718138      188.38815      107.5261       182.34058     -21.743053      419.7382       119.16095     -48.23899      -487.13212     -109.11663      3693608      
    502000   299.95032      0.89409277     0.67638352     1.5704763      188.27067      107.60641      182.3765      -374.30164      225.3608       10.98023      -112.97758     -405.15476     -46.190448      3694789.3    
    503000   299.89517      0.89392838     0.67640687     1.5703352      188.29142      107.57982      182.2117       60.967527     -487.25061      100.19203      130.45382     -250.36715     -5.667819       3690945.3    
    504000   300.10715      0.89456026     0.67706954     1.5716298      188.39657      107.54044      182.27986     -106.31526      92.653831      18.760158     -18.099446     -441.95154     -97.861336      3693035.5    
    505000   299.30708      0.89217541     0.67646822     1.5686436      188.36704      107.55549      182.40671      219.70391      598.88977      7.9067841     -28.680395     -516.22132     -118.93319      3695543.4    
    506000   299.96466      0.89413551     0.67521675     1.5693523      188.35779      107.58691      182.40156     -34.505141     -201.41718     -182.66739      80.988342     -455.87964      100.84631      3696337.1    
    507000   299.55336      0.8929095      0.67818116     1.5710907      188.38237      107.5694       182.29831     -269.38875      44.803642     -213.45006      16.346196     -415.20318      13.499551      3694125.5    
    508000   299.72558      0.89342288     0.67755349     1.5709764      188.38541      107.56031      182.44885     -106.74105      388.4946      -99.393195     -111.22725     -409.95004     -17.96076       3696923.3    
    509000   300.53003      0.89582077     0.67747895     1.5732997      188.33679      107.58926      182.45738     -7.5700193      66.660738     -208.49561      147.52969     -432.80361     -26.786379      3697136.7    
    510000   300.1971       0.89482838     0.67655129     1.5713797      188.40454      107.58441      182.34164     -280.33912      97.188374     -76.881448     -54.980163     -446.10173      120.41716      3695954.1    
    511000   299.65878      0.89322375     0.67841362     1.5716374      188.47151      107.50383      182.47132     -204.89475      229.50942     -141.91802      3.1366988     -493.25455      78.794286      3697126.1    
    512000   300.60297      0.8960382      0.67817135     1.5742095      188.36068      107.58681      182.42467     -217.58342     -172.25644     -104.45634      147.98276     -425.86217      72.403866      3696858.7    
    513000   299.93408      0.89404435     0.67640726     1.5704516      188.40153      107.58523      182.29051     -120.29233     -247.46558      88.040118     -52.896589     -444.39932     -80.74469       3694887      
    514000   299.46932      0.892659       0.67418847     1.5668475      188.38124      107.55752      182.24194      209.98875     -90.629549      56.688123      21.103751     -421.88319      22.789325      3692553.2    
    515000   300.45958      0.89561079     0.67725884     1.5728696      188.43849      107.53737      182.42465     -9.5589193     -263.38697      280.82659      42.615811     -370.59221      148.75519      3696685.9    
    516000   299.94323      0.89407165     0.67749524     1.5715669      188.35423      107.60767      182.41092      196.15749      81.493913     -36.000826      166.22236     -497.19582      69.134277      3697170.2    
    517000   300.13372      0.89463945     0.67540332     1.5700428      188.3025       107.58924      182.43996     -313.94768     -254.5208      -186.53445     -0.16012       -417.34505      116.72447      3696109.9    
    518000   299.56512      0.89294458     0.67673993     1.5696845      188.46258      107.58241      182.43494     -182.61551      61.297409     -306.96131      28.824273     -515.89294     -105.0266       3698915.7    
    519000   299.2795       0.89209319     0.6763119      1.5684051      188.35538      107.54906      182.37561     -183.87038     -147.24387     -193.11291      30.332204     -459.66408     -47.223933      3694463.7    
    520000   300.01317      0.89428012     0.67594943     1.5702295      188.40298      107.58205      182.39589     -226.4568      -212.13158     -255.91228      54.267898     -389.52426      59.602858      3696942      
    521000   299.68203      0.89329305     0.67835028     1.5716433      188.35963      107.59287      182.3052       288.36793      140.67338     -49.053124     -143.50435     -517.22152     -58.296245      3694624.9    
    522000   299.33262      0.89225152     0.67611146     1.568363       188.29822      107.6105       182.35663      301.27318      286.50948      399.44441     -142.79845     -449.72534      34.438884      3695067.9    
    523000   300.03583      0.89434767     0.67621842     1.5705661      188.39809      107.57562      182.41817      27.665476      67.989615      97.45178       37.275959     -280.0518      -2.0487453      3697076.8    
    524000   300.05024      0.8943906      0.67666109     1.5710517      188.3633       107.56745      182.38233      102.23184      134.22297      239.45245     -119.79941     -497.43265     -149.64379      3695387      
    525000   299.59425      0.8930314      0.68009922     1.5731306      188.34593      107.5829       182.3226       176.04444      68.025555      31.538114      88.198942     -398.24249     -23.200485      3694366.7    
    526000   300.68538      0.89628386     0.67665353     1.5729374      188.33383      107.58381      182.44043      64.192299     -52.932932     -134.8756      -40.979623     -369.04446     -70.984158      3696547.9    
    527000   299.93234      0.89403918     0.67785217     1.5718914      188.42734      107.55081      182.46199      141.46582      177.39227     -27.6743       -119.56653     -385.307        3.2546141      3697686      
    528000   299.60983      0.89307785     0.67747337     1.5705512      188.25964      107.57234      182.41634     -150.91907     -208.48183     -170.98193     -22.222464     -219.96339      61.06205       3694210.1    
    529000   300.10866      0.89456476     0.67706009     1.5716248      188.30184      107.62017      182.32581     -449.04915     -352.47872      81.965133      140.69388     -459.38024     -1.94691        3694846.5    
    530000   300.51039      0.89576222     0.67734278     1.573105       188.37032      107.54155      182.40213      340.78705      65.064494     -114.42935     -22.528304     -475.10052      7.8897037      3695036.1    
    531000   300.09143      0.8945134      0.67657752     1.5710909      188.32651      107.58245      182.36192     -231.94699      2.0777675      188.11541     -141.27406     -475.15207     -18.903856      3694766.8    
    532000   300.22327      0.89490638     0.67703771     1.5719441      188.24626      107.58609      182.38421      73.787302      268.9938       192.60741     -16.844465     -406.45096      52.003251      3693768.8    
    533000   299.90841      0.89396784     0.67520292     1.5691708      188.31156      107.59448      182.32908     -34.610035     -217.12058     -81.697951     -85.338149     -537.19387     -148.35751      3694221.4    
    534000   300.48814      0.89569591     0.67932984     1.5750257      188.31843      107.58096      182.44815      126.2405      -50.786037      115.17916      15.703353     -373.87391      106.96334      3696304.2    
    535000   300.34744      0.89527652     0.67734629     1.5726228      188.34575      107.55222      182.494       -357.3583       167.05638     -137.24987     -74.160025     -306.2393       70.472687      3696781.6    
    536000   299.52368      0.89282105     0.67817285     1.5709939      188.29466      107.61667      182.30929      40.604182      347.06892      39.03507      -158.15155     -439.81785     -50.609134      3694250.7    
    537000   300.52346      0.89580119     0.67673033     1.5725315      188.39171      107.56821      182.38028     -121.48573      25.688498      186.13558      190.53206     -376.29648     -78.992722      3695929      
    538000   299.38969      0.89242165     0.67597238     1.568394       188.28387      107.58297      182.42016      213.93661      46.867505      19.50561       162.67895     -434.71149     -22.946981      3695128      
    539000   300.99277      0.8972001      0.67800028     1.5752004      188.26931      107.60957      182.48378      54.574606     -8.7588125     -40.525723      86.52879      -469.5497       109.43656      3697044.7    
    540000   300.69318      0.89630708     0.67807798     1.5743851      188.37434      107.59219      182.53041      50.854993     -17.389815      15.196554     -141.54222     -493.46686     -65.876132      3699454.9    
    541000   300.21405      0.8948789      0.67659793     1.5714768      188.34868      107.572        182.42698      406.15633      139.33973      38.35403       2.7875623     -414.34175      129.86677      3696161.1    
    542000   300.26121      0.89501946     0.67846032     1.5734798      188.30323      107.57857      182.33415      425.99839     -12.221556     -103.24324      29.336981     -460.41771     -118.6025       3693614.4    
    543000   299.81237      0.89368156     0.67664521     1.5703268      188.31896      107.57416      182.24777      68.724927     -67.321248      192.31575      229.66443     -401.52456      124.85935      3692021.5    
    544000   299.74505      0.89348089     0.67596931     1.5694502      188.34889      107.56373      182.39633      155.83748      86.673116      122.8754       111.57008     -332.03493     -61.212987      3695260.1    
    545000   300.02788      0.89432397     0.67830631     1.5726303      188.35167      107.60119      182.5072      -20.77049       17.175385      89.723809      104.83737     -598.85377     -96.577076      3698848.4    
    546000   299.96386      0.89413312     0.67881986     1.572953       188.24605      107.56357      182.41479      176.33835     -78.545092      128.17211     -71.98204      -470.20432     -9.8126351      3693610.9    
    547000   300.07861      0.89447519     0.67576854     1.5702437      188.27326      107.59374      182.34891      21.102234      158.23244     -287.39398      49.996186     -267.15142      76.71202       3693846.2    
    548000   300.05824      0.89441447     0.6777123      1.5721268      188.40025      107.60285      182.35543     -42.674619     -89.992581      182.66933     -141.23511     -390.14041      57.96277       3696783      
    549000   300.05613      0.89440816     0.6774662      1.5718744      188.36011      107.58613      182.4828      -232.00829     -108.84395     -123.46756     -57.040796     -440.33207     -108.70307      3698002.3    
    550000   300.19056      0.89480888     0.67775561     1.5725645      188.3021       107.58559      182.41614     -16.876622     -49.275093      150.6497      -122.02249     -392.43539     -9.2589632      3695494.3    
    551000   299.11088      0.89159057     0.67721262     1.5688032      188.3011       107.59044      182.45643     -31.03432       41.255857     -120.13445     -18.901007     -306.8724       75.653527      3696457.4    
    552000   299.84817      0.89378827     0.67633923     1.5701275      188.34392      107.61869      182.49309     -287.11886     -92.740084     -140.214       -30.945124     -329.79779     -40.462372      3699011.7    
    553000   299.71078      0.89337874     0.67714479     1.5705235      188.33127      107.60214      182.53428      170.34213     -92.303773     -152.43922     -82.985399     -421.09941     -4.2450429      3699029.4    
    554000   299.88714      0.89390443     0.67763865     1.5715431      188.29817      107.56579      182.32373     -2.3541709      191.33708      2.7724153      58.127759     -507.68345      116.40965      3692865.3    
    555000   299.88699      0.893904       0.67577689     1.5696809      188.2468       107.59765      182.36927      121.61066     -61.606542      81.4098        99.19303      -440.78583     -101.8255       3693874      
    556000   300.06456      0.89443331     0.67814442     1.5725777      188.33108      107.59696      182.38908      134.8514       359.92344     -16.326754     -74.992472     -382.99236      18.957398      3695905.3    
    557000   300.34333      0.89526425     0.67971744     1.5749817      188.34936      107.60427      182.51194      33.168087     -226.41048     -47.750619     -27.80534      -282.11898      29.573094      3699005      
    558000   300.2307       0.89492854     0.67870607     1.5736346      188.37161      107.58227      182.57595     -126.30231     -77.325252     -29.041827      102.30197     -347.11067      99.437457      3699983      
    559000   300.52722      0.89581241     0.67755649     1.5733689      188.39475      107.56878      182.41297     -88.228161     -46.589345      28.11429      -142.80412     -342.61518     -10.222371      3696670.5    
    560000   300.09196      0.89451499     0.67707089     1.5715859      188.31712      107.62046      182.37555      10.68693      -273.65924      170.29888      46.400648     -429.48669     -27.460101      3696164.2    
    561000   300.12949      0.89462686     0.67791081     1.5725377      188.37002      107.61816      182.45871     -181.93556     -137.09804     -123.72087     -144.95949     -568.2531      -45.777801      3698809.5    
    562000   299.61174      0.89308354     0.67639757     1.5694811      188.26263      107.66681      182.45021     -87.447655     -68.689424      203.21032      187.85667     -337.92661      121.95018      3698199.6    
    563000   299.86455      0.89383712     0.67809006     1.5719272      188.27715      107.62831      182.47771      84.192676     -116.29174      9.4106519     -222.87698     -335.81164      2.7592347      3697719.5    
    564000   300.22687      0.89491711     0.67847608     1.5733932      188.30541      107.59566      182.52073      79.908874     -218.14757      143.41825      137.50313     -339.96919     -57.563233      3698024.4    
    565000   299.51596      0.89279803     0.67822877     1.5710268      188.31158      107.61533      182.35118     -299.82572     -115.63978     -24.722373      182.47013     -463.17638      17.462878      3695385.6    
    566000   300.01351      0.89428113     0.6784692      1.5727503      188.31077      107.59608      182.40014      227.88384      156.19643     -24.946244     -178.57659     -540.00193     -35.632875      3695700.6    
    567000   299.93489      0.89404678     0.67886911     1.5729159      188.26495      107.59728      182.59409     -22.148743     -292.37572      110.91874      35.440501     -463.73671     -86.75393       3698771.5    
    568000   299.58629      0.89300767     0.67921115     1.5722188      188.36001      107.6109       182.41072     -164.85715     -187.45083     -160.1096       136.35208     -517.04252     -65.59789       3697390.4    
    569000   299.9459       0.89407961     0.67769861     1.5717782      188.33652      107.62444      182.43572      87.929753     -197.62593     -302.92048     -94.629423     -386.27522      31.117866      3697901.4    
    570000   299.90778      0.89396598     0.67743113     1.5713971      188.3316       107.6388       182.45867     -158.7633      -7.3617388     -157.14342      75.791844     -440.9548       68.362703      3698763.2    
    571000   300.264        0.8950278      0.67626088     1.5712887      188.28133      107.60981      182.39727      303.11654      32.417463      58.229773      183.81729     -413.43894      103.19695      3695536.3    
    572000   299.46105      0.89263435     0.67621127     1.5688456      188.27849      107.62216      182.345       -33.743547     -138.67385      144.61         47.121573     -490.02939     -132.66882      3694845.4    
    573000   300.02592      0.89431812     0.68065134     1.5749695      188.3286       107.62961      182.48834     -17.628353     -18.938977      11.687412     -5.0919008     -531.33456     -24.231256      3698989.9    
    574000   300.32239      0.89520185     0.6778676      1.5730694      188.28505      107.61065      182.43957     -123.00312      28.915997      2.4964032      132.61241     -369.86953     -0.12331484     3696495.2    
    575000   299.51936      0.89280818     0.67894272     1.5717509      188.30501      107.59779      182.44388     -91.21847      -140.74292     -173.2532      -40.786705     -471.05886     -41.817682      3696532.7    
    576000   299.68912      0.89331417     0.68042297     1.5737371      188.31704      107.61663      182.5383      -214.49999      51.115136     -256.26472      187.55199     -483.66109     -101.32997      3699329.6    
    577000   300.53694      0.89584138     0.67770963     1.573551       188.24924      107.57987      182.45141      68.230384      150.93485     -44.114578     -47.163983     -566.98488      35.068862      3694974.7    
    578000   299.89689      0.89393351     0.67919642     1.5731299      188.31531      107.55997      182.63022      82.412316      144.30186     -112.18059     -109.64546     -422.2164      -32.937116      3699209.5    
    579000   300.01028      0.89427149     0.67733946     1.571611       188.35366      107.58536      182.41362      80.897362      116.76606      17.895811      31.365405     -470.67336     -71.816748      3696447.3    
    580000   299.7006       0.89334842     0.67851327     1.5718617      188.33619      107.56731      182.48983     -118.66861     -101.34691      167.62825     -161.7879      -268.36987      77.694833      3697028.3    
    581000   300.80318      0.89663499     0.67738758     1.5740226      188.30933      107.60881      182.41934     -216.65657     -67.999268      49.289407     -195.47476     -485.94932      145.93348      3696498.6    
    582000   300.91815      0.89697767     0.67641028     1.573388       188.21883      107.59446      182.59753      93.735928     -237.35078      82.035846      50.578852     -556.83817     -82.891616      3697838      
    583000   299.86874      0.89384959     0.67656882     1.5704184      188.26717      107.58227      182.5122      -46.549831      181.35986      42.916576     -117.24943     -494.19942     -89.401912      3696640.4    
    584000   299.72529      0.89342201     0.67708035     1.5705024      188.27507      107.56307      182.45626     -87.427381      56.873693     -213.20489     -1.4647458     -622.17724      5.8052869      3695002.9    
    585000   300.02704      0.89432147     0.67538597     1.5697074      188.2921       107.56925      182.3904       231.00067     -108.2139      -33.866451      174.35117     -197.43278      30.322933      3694215.3    
    586000   299.80223      0.89365136     0.67922801     1.5728794      188.42275      107.57779      182.53166      28.916841      119.09989     -68.403148     -137.84902     -355.27473      63.224279      3699935.6    
    587000   299.37222      0.89236958     0.68068014     1.5730497      188.39689      107.58827      182.60893     -115.40116      95.805194     -181.84185     -31.291811     -537.93335     -29.180126      3701354.5    
    588000   300.62423      0.89610158     0.67828393     1.5743855      188.28556      107.56936      182.59701      236.46356      147.43349      56.289811     -120.47695     -512.78404     -77.847879      3698275.5    
    589000   300.02287      0.89430904     0.67996309     1.5742721      188.37575      107.59827      182.56251     -282.75273     -135.19366      13.361768      87.845071     -410.56102      82.194761      3700342.2    
    590000   299.35863      0.89232907     0.67729101     1.5696201      188.24786      107.58433      182.4426       342.90528     -86.044624     -68.128326      146.04283     -426.69471     -2.4563825      3694922.5    
    591000   301.15424      0.89768142     0.67711333     1.5747947      188.24483      107.57648      182.52378      187.26623      110.0404      -86.484115      149.94757     -356.75546      71.852597      3696237.3    
    592000   299.39913      0.89244978     0.67783265     1.5702824      188.30057      107.58358      182.57182      10.666894      60.462523     -265.17187     -0.52389915    -441.39078      105.43316      3698548.9    
    593000   300.27613      0.89506393     0.67847827     1.5735422      188.3601       107.60801      182.49989     -182.34163      190.2251       51.149785      224.59339     -403.82978      4.0861359      3699100.4    
    594000   299.82059      0.89370607     0.67840695     1.572113       188.29926      107.63961      182.56466     -133.18089     -168.23634     -255.98576      44.794695     -301.24641      80.953303      3700304.4    
    595000   299.87915      0.89388064     0.67809297     1.5719736      188.23944      107.62965      182.44535      646.14805      244.82536      4.5636128      196.27984     -373.01788      32.603609      3696369.4    
    596000   299.27653      0.89208434     0.67660239     1.5686867      188.24508      107.61824      182.47468      209.05096      34.157374     -1.4873549     -1.7325071     -327.1868      -134.46891      3696682.3    
    597000   300.34485      0.89526879     0.67896472     1.5742335      188.26553      107.59842      182.54747     -148.51419      201.68609     -37.965692      19.420121     -366.93355      55.589296      3697877.6    
    598000   299.63441      0.89315111     0.67777132     1.5709224      188.40593      107.53744      182.40786      234.24259      404.12312      57.937521     -197.93164     -471.40327     -8.3401186      3695709.3    
    599000   299.64091      0.89317049     0.67669356     1.569864       188.30084      107.60229      182.47125      421.70347      53.502554      89.627227     -77.454237     -424.8494      -109.29423      3697159.9    
    600000   300.70811      0.89635159     0.67831144     1.574663       188.2563       107.58202      182.50849      157.56203      86.057101      104.18583      1.2021338     -535.84137      28.277222      3696343.3    
    601000   300.81373      0.89666643     0.67653536     1.5732018      188.25674      107.57321      182.43181     -302.92886      159.18083     -7.3429481     -112.5486      -296.51633      107.72493      3694496.2    
    602000   300.38423      0.89538618     0.67793428     1.5733205      188.25814      107.63146      182.4663      -151.92734     -2.3103442      24.322665     -179.14149     -421.82323      2.9651713      3697223.3    
    603000   300.11865      0.89459453     0.67715536     1.5717499      188.2907       107.62728      182.52666     -11.344757      92.186925      232.26727     -20.21634      -480.13656      49.607025      3698942.1    
    604000   299.91567      0.89398948     0.6786156      1.5726051      188.32462      107.58566      182.59633     -244.32079      82.262777     -47.099331      162.5559      -508.3554       162.81365      3699589.8    
    605000   299.3192       0.89221153     0.67817433     1.5703859      188.4243       107.62778      182.61317     -161.66396      188.18578     -169.26961     -86.126912     -427.97103      89.590331      3703338.3    
    606000   300.164        0.89472972     0.67804789     1.5727776      188.3852       107.64719      182.49928      18.282035     -161.15153     -60.897611     -145.28838     -309.14446      119.90491      3700928.1    
    607000   300.34305      0.89526343     0.67736639     1.5726298      188.27346      107.62799      182.62189      41.161858      79.732871      136.99292      15.00597      -387.77227     -47.63597       3700557.7    
    608000   300.46905      0.89563901     0.67593878     1.5715778      188.42346      107.59644      182.46117     -281.031       -115.38744     -5.4701536     -81.032451     -331.18362      61.446802      3699161.9    
    609000   300.01098      0.89427359     0.67942938     1.573703       188.31849      107.62132      182.41785      208.18967      348.0574       72.681398     -23.539722     -361.5383       65.683489      3697077.7    
    610000   299.80553      0.89366119     0.67744102     1.5711022      188.24266      107.62668      182.48882     -211.57286     -202.92245     -83.124201      105.77864     -315.15841     -21.653795      3697211.2    
    611000   300.04459      0.89437377     0.67828112     1.5726549      188.30328      107.61198      182.50839      102.23445     -17.650222     -77.680256     -163.08641     -237.81816      22.783428      3698293.2    
    612000   300.01144      0.89427495     0.67874511     1.5730201      188.34329      107.59933      182.56135      17.911027      107.29643      14.998251      90.544894     -408.90234      11.802281      3699717.5    
    613000   300.3141       0.89517712     0.67759383     1.5727709      188.41544      107.58778      182.4502      -23.321245      41.265288      159.38975      97.5382       -306.56919      102.84857      3698484.2    
    614000   299.83193      0.89373988     0.67759992     1.5713398      188.20045      107.58841      182.43133      94.134976      182.3805       149.34741     -64.296835     -464.84265      90.569503      3693903.7    
    615000   299.69751      0.89333919     0.67670256     1.5700417      188.33096      107.62392      182.41851      171.89316     -31.878271     -189.87202     -180.28773     -312.70848      3.3501241      3697425.6    
    616000   299.76363      0.89353629     0.68042364     1.5739599      188.38259      107.62321      182.44777     -143.43112     -29.200639      135.687       -86.169211     -527.90881      105.47074      3699008.1    
    617000   300.025        0.89431538     0.67932321     1.5736386      188.21771      107.61063      182.49552      226.31626      157.74013      61.60569       6.4065822     -386.21461      46.704514      3696305.6    
    618000   300.25013      0.89498646     0.67851206     1.5734985      188.26754      107.61636      182.55153     -80.551423     -19.833763     -161.88902      5.9138691     -426.87035     -36.363968      3698615.9    
    619000   300.22062      0.8948985      0.67780742     1.5727059      188.24187      107.62505      182.44506      246.32679     -378.11269     -14.958576     -72.06072      -346.21033      150.0496       3696253      
    620000   300.26064      0.89501777     0.67707408     1.5720919      188.33134      107.60193      182.44833      57.787509     -27.488218      89.846718      93.673311     -429.94535      13.748972      3697281.9    
    621000   300.11953      0.89459715     0.67905536     1.5736525      188.38336      107.61077      182.42633     -125.05537     -244.54282      101.22077     -245.20805     -276.25961     -78.373117      3698160.9    
    622000   300.2558       0.89500334     0.67849579     1.5734991      188.33042      107.60989      182.41389     -390.69826      305.60638     -67.111414      57.073119     -403.35929     -131.61438      3696839.2    
    623000   299.53542      0.89285603     0.68054391     1.5733999      188.30993      107.56523      182.5276       223.92802      17.87062      -46.68454      -130.2269      -396.70942      94.916071      3697206.3    
    624000   300.28237      0.89508255     0.67780661     1.5728892      188.24717      107.62721      182.41363     -103.07319      303.405        142.8672      -45.502426     -415.40333      50.478924      3695794.5    
    625000   299.98201      0.89418724     0.67816397     1.5723512      188.30679      107.60473      182.40907      223.29395     -36.242409      96.949928     -26.957765     -581.10017      33.886168      3696100.6    
    626000   299.6622       0.89323395     0.68025379     1.5734877      188.33403      107.59222      182.54333     -74.111937     -3.8693645     -6.6577503     -92.47556      -281.21847      21.881413      3698925.9    
    627000   299.92527      0.89401809     0.67863215     1.5726502      188.35008      107.61811      182.52459      139.86349     -135.45422     -65.985379     -66.901887     -285.8101      -38.596635      3699751.6    
    628000   300.41748      0.89548529     0.67955893     1.5750442      188.44561      107.64583      182.38041     -94.963259     -225.3808       124.07092     -80.314784     -395.81848      4.0241605      3699656.7    
    629000   300.28655      0.895095       0.67547792     1.5705729      188.29483      107.63142      182.38005     -245.42626     -87.763537      78.590259     -109.54427     -451.57365      11.205697      3696194.3    
    630000   300.27405      0.89505775     0.67788719     1.5729449      188.22739      107.67358      182.45001     -284.31679     -48.277109      0.91182891    -43.929879     -269.43553     -16.380437      3697735.7    
    631000   300.44375      0.89556359     0.67689029     1.5724539      188.20866      107.67444      182.39757     -80.68621      -125.91965      125.76515     -187.16269     -278.55052      129.17161      3696334.4    
    632000   299.58634      0.89300782     0.67768718     1.570695       188.32677      107.61804      182.38949      233.58217     -42.89406       361.36796      482.41008     -453.26658     -2.9368066      3696553.1    
    633000   299.80475      0.89365886     0.6790356      1.5726945      188.32747      107.57612      182.44487     -56.340472      216.50218     -98.777337      169.49852     -273.05535      37.708003      3696248.6    
    634000   300.3067       0.89515506     0.67780422     1.5729593      188.20324      107.5687       182.47228     -158.23586      67.472587     -35.774351     -28.609645     -387.49138      136.819        3694110.9    
    635000   299.92978      0.89403154     0.67943705     1.5734686      188.37615      107.59506      182.43982     -140.69345      162.39065      43.931213     -43.830871     -346.5941       65.759906      3697752.9    
    636000   300.26838      0.89504086     0.67906693     1.5741078      188.34867      107.59512      182.4589      -163.58529      55.082632      66.894468      125.76612     -372.82072      65.396631      3697602      
    637000   299.33045      0.89224506     0.67817391     1.570419       188.22752      107.64253      182.47516     -5.7558964     -421.10784      140.10146     -44.64157      -482.96356      39.281449      3697181.7    
    638000   299.99616      0.89422941     0.67894258     1.573172       188.25049      107.58535      182.42667      87.237175      431.09429     -48.641435     -331.28886     -290.97543     -22.652619      3694686.4    
    639000   300.48224      0.89567833     0.67938166     1.57506        188.42416      107.57768      182.33376     -369.83618      96.068944     -58.57472      -83.885929     -364.34408     -6.8221977      3695948.1    
    640000   300.98504      0.89717708     0.6783675      1.5755446      188.37314      107.61887      182.45255     -160.37104      19.540069      235.87202      109.51567     -384.69499      45.927733      3698770      
    641000   299.54837      0.89289463     0.6807786      1.5736732      188.39134      107.63498      182.47219     -41.728337     -78.634407     -174.45012     -50.822057     -381.86266      82.439708      3700079.3    
    642000   299.75956      0.89352414     0.67894176     1.5724659      188.31421      107.59575      182.50017     -149.18577      160.24396     -170.2272       27.05532      -415.73385     -109.03696      3697783.7    
    643000   299.39071      0.89242468     0.67819583     1.5706205      188.473        107.60128      182.40198      260.68705      243.1127       145.65027     -28.921468     -382.74035     -22.507546      3699100.6    
    644000   299.75656      0.89351523     0.68016252     1.5736777      188.38477      107.62233      182.48135      53.858646      211.14322      108.38587     -20.537277     -494.33387     -16.961949      3699701.2    
    645000   299.82974      0.89373335     0.6772991      1.5710325      188.19445      107.59624      182.45831     -13.514275      97.933979      34.780265     -21.966263     -379.72283      77.525556      3694601.2    
    646000   300.47398      0.8956537      0.68066883     1.5763225      188.29599      107.59698      182.41751      155.19912     -179.72519      165.47411      175.19104     -453.76516      89.090441      3695793.1    
    647000   300.47794      0.8956655      0.67830044     1.5739659      188.34989      107.61803      182.43867     -203.39741      103.26038     -26.843863     -26.688143     -543.79924      67.405494      3698003.2    
    648000   300.18616      0.89479577     0.67785209     1.5726479      188.30792      107.60225      182.38917     -79.2662        162.08376      85.704729     -114.49046     -441.01396      93.606631      3695634.2    
    649000   300.22873      0.89492265     0.67707971     1.5720024      188.29046      107.65274      182.4453       23.583462     -86.920396     -101.51123      41.890945     -505.0462       12.414972      3698163.2    
    650000   299.63369      0.89314896     0.67729781     1.5704468      188.25914      107.6204       182.48495     -60.003063      91.853334     -93.57872      -195.7921      -383.90514      44.945332      3697240.8    
    651000   300.21292      0.89487553     0.6791882      1.5740637      188.30779      107.5801       182.5163       205.59664      142.11742     -49.385213      32.682925     -361.5498       261.12015      3697446.3    
    652000   300.08747      0.89450158     0.67864006     1.5731416      188.36802      107.58599      182.45928      288.5904      -100.58409     -232.57015     -53.081742     -420.50244     -65.883065      3697676.3    
    653000   300.45728      0.89560393     0.67736014     1.5729641      188.2819       107.60201      182.42916      75.910141      87.400034     -33.863975      11.342097     -569.22593      38.131307      3695925.6    
    654000   300.09117      0.89451262     0.67639489     1.5709075      188.31248      107.60706      182.34701     -199.11848     -0.0067469684   76.116556     -284.50747     -564.73625     -86.647767      3695034.9    
    655000   299.6438       0.8931791      0.67940704     1.5725861      188.28664      107.61115      182.50809     -261.54655     -82.682363     -103.90194      124.15003     -401.90088      3.2614051      3697931.9    
    656000   300.53807      0.89584474     0.6791125      1.5749572      188.30151      107.57608      182.471       -49.436734      57.942846      9.4932893     -62.758926     -353.04786      25.704879      3696267.3    
    657000   299.94286      0.89407053     0.67905908     1.5731296      188.36662      107.59473      182.42437      105.19081      46.755559     -23.757186      77.043794     -451.95334      89.308241      3697241.5    
    658000   300.18294      0.89478618     0.68165844     1.5764446      188.45029      107.64012      182.4242      -54.124452      102.00468      20.372529     -150.76828     -416.22206      60.676194      3700440.4    
    659000   299.84641      0.89378305     0.67839824     1.5721813      188.40179      107.63384      182.53025     -86.107369      137.77952      80.256243      35.97045      -559.63801      1.0417293      3701422.7    
    660000   299.6141       0.89309056     0.67873275     1.5718233      188.23577      107.62363      182.49522      517.32413     -186.39252      17.549165      78.221363     -342.86031      50.137486      3697100.8    
    661000   299.79234      0.89362187     0.67794456     1.5715664      188.29226      107.65577      182.50392      225.4868      -203.59025      149.7986       1.0661764     -557.80943      97.339764      3699491      
    662000   299.79647      0.89363417     0.68045324     1.5740874      188.30142      107.63494      182.51655      494.19472      196.62601      170.41428      151.56167     -346.59503     -69.459546      3699211.1    
    663000   300.10603      0.89455691     0.67962395     1.5741809      188.29365      107.59894      182.47558      35.993409      82.314495      351.64851     -41.902606     -379.06978      30.955113      3696991.3    
    664000   300.45316      0.89559164     0.67824988     1.5738415      188.3302       107.55421      182.49001     -270.73787      235.48868      84.664984      42.892792     -502.88957     -94.400533      3696464.1    
    665000   299.43502      0.89255675     0.6786317      1.5711885      188.29939      107.63874      182.42969      52.000816     -21.921511     -114.61625      64.098564     -535.29426     -67.666261      3697541.3    
    666000   299.85315      0.89380313     0.67848785     1.572291       188.37966      107.62809      182.49518     -221.37449      256.3711      -75.803503      94.509636     -441.55942      78.660964      3700079.4    
    667000   299.79978      0.89364406     0.67711755     1.5707616      188.35261      107.63213      182.51709      469.8918       158.69914      147.24432      195.80237     -313.0171       17.831864      3700131.1    
    668000   300.51403      0.89577308     0.67827432     1.5740474      188.25312      107.61825      182.41438      54.538679      54.920099      69.258113     -108.73727     -341.56406     -27.455555      3695619      
    669000   300.22868      0.8949225      0.67732057     1.5722431      188.2646       107.60119      182.44316      241.59253     -175.78576     -82.665635      181.31558     -457.34829      23.918082      3695841.7    
    670000   299.44214      0.892578       0.67839788     1.5709759      188.31496      107.61918      182.49309      45.679925     -78.338595     -34.978754      3.3336817     -430.94298      28.934339      3698459.9    
    671000   299.86425      0.89383621     0.6780625      1.5718987      188.31883      107.61134      182.50748     -68.601813      328.87221     -85.62368       177.80443     -473.73671      28.758749      3698558      
    672000   300.83533      0.89673082     0.67811378     1.5748446      188.40918      107.61835      182.52435     -38.656106     -363.2427      -168.74128     -114.59881     -393.00197      193.61934      3700915.7    
    673000   299.92026      0.89400318     0.67799775     1.5720009      188.35839      107.61869      182.45939     -24.226445      103.86784     -58.690205      80.831688     -430.11334      132.89292      3698613      
    674000   299.58314      0.89299828     0.67704907     1.5700473      188.35226      107.57894      182.42629     -473.35622     -82.743061     -12.051999     -297.94582     -506.76153     -105.77751      3696455.9    
    675000   300.05196      0.89439573     0.67704899     1.5714447      188.22179      107.59493      182.46797      223.68304      284.59964     -107.01194      241.60081     -374.77605      61.846239      3695288.2    
    676000   299.77315      0.89356468     0.67675703     1.5703217      188.22193      107.62193      182.59206      63.022512      269.61581     -145.89937     -148.21779     -425.35073     -19.353179      3698732.1    
    677000   299.42786      0.89253542     0.67921214     1.5717476      188.16339      107.62822      182.50356      233.73145     -37.92109      -15.529717      17.327777     -417.04297      23.630498      3696005.9    
    678000   300.95543      0.89708882     0.67915277     1.5762416      188.28208      107.61815      182.48437     -352.351        11.907658      89.573471      35.368434     -466.58076      39.696696      3697602.4    
    679000   299.65746      0.89321981     0.6775058      1.5707256      188.27224      107.60598      182.54971     -333.07324     -88.15144      -32.573839     -34.063405     -405.83171      53.87003       3698314.8    
    680000   300.17476      0.89476177     0.67837164     1.5731334      188.31973      107.60395      182.54464      8.7392553     -340.1517      -184.74793     -55.427737     -352.54577     -21.927919      3699074.7    
    681000   299.77456      0.89356885     0.68053443     1.5741033      188.49674      107.62462      182.48468     -393.07561     -141.92428      59.772245      88.428488     -455.35267      72.051657      3702046.8    
    682000   299.2759       0.89208244     0.67889467     1.5709771      188.32709      107.61259      182.50269     -162.58745     -89.62463      -183.02211     -118.87319     -465.9118       139.71502      3698666.4    
    683000   300.04017      0.89436061     0.67733492     1.5716955      188.26538      107.63051      182.50039      287.5521       216.53818      59.620934     -61.466375     -499.50078      224.77825      3698023.5    
    684000   299.69089      0.89331947     0.67751894     1.5708384      188.22663      107.63208      182.52289      333.67797     -79.817619      104.92828     -64.902434     -375.54302     -26.324409      3697772.2    
    685000   300.58229      0.89597656     0.67984657     1.5758231      188.36194      107.61682      182.53318      136.87838     -158.00444      40.886377      77.358504     -375.53389     -77.253287      3700114.2    
    686000   299.78852      0.89361049     0.6781765      1.571787       188.28294      107.62649      182.53202      19.462938      112.96861     -145.83595      183.1037      -357.10866     -83.023246      3698871.1    
    687000   299.78864      0.89361085     0.6782622      1.571873       188.34975      107.57366      182.47621      128.85608      253.05117     -215.77363      178.32505     -266.5228       43.774938      3697236.3    
    688000   299.78915      0.89361237     0.68046887     1.5740812      188.33046      107.59857      182.50375     -150.53812     -8.1064009     -120.05285      57.213719     -309.51731      196.69508      3698271.9    
    689000   300.12432      0.89461144     0.67823427     1.5728457      188.23232      107.59447      182.49092      96.940775     -12.538845     -77.092525     -148.76944     -298.14991      57.225592      3695944.1    
    690000   299.75099      0.89349861     0.67791814     1.5714168      188.20116      107.60316      182.51681     -355.49341     -19.778265     -23.409003      0.8707127     -511.16309      30.623765      3696154.9    
    691000   299.58424      0.89300156     0.67702159     1.5700231      188.31924      107.58792      182.50742      129.27611      14.676265     -106.32582     -81.08537      -339.87533     -24.423065      3697760      
    692000   300.27546      0.89506194     0.67894238     1.5740043      188.33396      107.6031       182.4705       122.11324     -156.05961     -63.550223      106.11232     -539.61154      82.770058      3697822.8    
    693000   299.97159      0.89415617     0.68006552     1.5742217      188.32399      107.66261      182.42616     -238.80071      31.472459      78.808564      61.307687     -490.58101      13.201272      3698773.1    
    694000   299.90903      0.89396971     0.67657455     1.5705443      188.2486       107.62931      182.48089      61.728346      110.4061       37.026632      166.49237     -416.64063      82.788641      3697257.5    
    695000   300.21569      0.8948838      0.67765697     1.5725408      188.22162      107.68329      182.50603      213.94176     -161.679        19.074471      109.52714     -529.82361      71.952176      3699091.4    
    696000   299.64258      0.89317545     0.67889312     1.5720686      188.27809      107.61968      182.44958     -29.768253      6.39454        179.61035      77.81775      -450.70302     -38.686174      3696871.3    
    697000   300.61712      0.89608036     0.67704684     1.5731272      188.21142      107.60942      182.38102      77.092055      229.63554     -51.575367     -63.486639     -394.64855      184.73546      3693821.3    
    698000   300.11376      0.89457995     0.67977875     1.5743587      188.32173      107.60383      182.52108     -150.20238      62.475466      86.551778      3.4397805     -417.54083      75.062161      3698632.6    
    699000   299.89143      0.89391723     0.67892087     1.5728381      188.30999      107.63912      182.52915     -94.758143     -189.28707      97.298348     -49.60437      -376.58607     -115.47694      3699778.8    
    700000   300.48079      0.89567399     0.67666786     1.5723418      188.36299      107.6271       182.46654      203.95706     -159.06121     -79.225599     -29.968038     -301.05158     -14.915715      3699137.3    
    701000   300.18003      0.89477748     0.67892338     1.5737009      188.36798      107.56446      182.49298      364.41349      216.27176      26.541522      144.52411     -298.94139      39.840181      3697618.1    
    702000   300.20002      0.89483709     0.68002464     1.5748617      188.29579      107.61767      182.48269      3.1007739     -198.3003      -53.818923      41.943792     -440.34857     -12.559079      3697821      
    703000   299.42792      0.8925356      0.67895254     1.5714881      188.32199      107.65905      182.48743      60.773988     -444.39021     -28.092664      98.518222     -407.87829     -32.972912      3699853.5    
    704000   300.11642      0.89458789     0.68099588     1.5755838      188.28421      107.62997      182.6113      -238.5888       56.722699     -331.44101     -238.14        -360.96657      43.460341      3700622.5    
    705000   299.51147      0.89278464     0.67940789     1.5721925      188.3358       107.62496      182.48686     -568.24064     -130.99826      34.615142      69.102809     -352.84578      29.178775      3698941.7    
    706000   300.17823      0.89477214     0.67940232     1.5741745      188.33948      107.57277      182.40043      165.85163     -191.70096      4.8922981     -52.487152     -417.62943     -41.156554      3695468.9    
    707000   300.21963      0.89489552     0.6761861      1.5710816      188.27575      107.62205      182.46577     -2.7885075     -10.330179     -47.336792      93.508403     -333.20948     -27.727307      3697234.9    
    708000   300.21642      0.89488595     0.67742451     1.5723105      188.2344       107.63419      182.47141     -133.61014     -261.3794      -63.084197      133.1529      -463.31422      11.490914      3696954.3    
    709000   299.60821      0.893073       0.67935095     1.5724239      188.32852      107.62463      182.48731      28.977776      31.096959     -6.1127004      126.76885     -398.07065     -40.687652      3698796.8    
    710000   299.68373      0.89329811     0.67801156     1.5713097      188.35945      107.59989      182.37368      88.949942      4.6635302      123.63317     -6.0031399     -462.74771     -26.614483      3696250.3    
    711000   300.26325      0.89502556     0.68002206     1.5750476      188.29769      107.5913       182.49253     -148.11439     -9.2453689     -12.560623     -17.923849     -428.39256      26.990857      3697151.5    
    712000   300.10105      0.89454206     0.67799199     1.572534       188.26353      107.65829      182.42873      2.2211447     -217.04058     -120.55526      37.837746     -344.1144      -174.91872      3697489.1    
    713000   299.09038      0.89152947     0.6778944      1.5694239      188.37442      107.60883      182.35677     -203.89402      46.968775      12.056861     -202.16562     -459.36832     -85.19664       3696508.5    
    714000   300.49283      0.89570989     0.67940708     1.575117       188.36043      107.59847      182.43867     -206.41825      218.9192       6.2422602      193.26243     -381.07121      44.424866      3697538.1    
    715000   300.61705      0.89608017     0.67774141     1.5738216      188.28442      107.62731      182.50419      117.90695     -8.7785581      79.688592     -130.67261     -446.42291     -34.326583      3698364.4    
    716000   299.32939      0.8922419      0.68034915     1.5725911      188.38489      107.62902      182.44566      387.73443      104.06033      35.523412     -22.837232     -427.39356     -23.659335      3699210.1    
    717000   300.68451      0.89628126     0.68060545     1.5768867      188.34925      107.59419      182.50415     -9.6208217      271.79199     -96.413566      64.686737     -492.92814     -192.97203      3698498.3    
    718000   299.4395       0.89257013     0.67561727     1.5681874      188.26988      107.60461      182.42029     -98.695315      39.063599     -45.317986      65.270316     -477.07562      61.068843      3695599.1    
    719000   300.38078      0.8953759      0.67710688     1.5724828      188.34974      107.59112      182.43872      104.34408     -291.08077     -9.0204235      233.30029     -381.40187     -36.426729      3697076.8    
    720000   300.38967      0.89540238     0.67873538     1.5741378      188.3479       107.60098      182.43459      37.600295     -111.3862       4.4937436      198.91211     -423.5954       101.6399       3697295.8    
    721000   299.85683      0.8938141      0.68076648     1.5745806      188.31197      107.59006      182.35851     -13.359763     -3.6954069      257.98125      29.852681     -475.0336      -70.542513      3694673.8    
    722000   300.63856      0.89614429     0.6769622      1.5731065      188.25134      107.64759      182.38211      40.47213       7.3698781      44.212965     -77.591466     -430.12908      56.189262      3695937.7    
    723000   300.2734       0.89505581     0.67884173     1.5738975      188.30953      107.62241      182.3593      -136.3434       23.713152     -12.696294      126.54331     -385.37612      37.017165      3695752.9    
    724000   299.80798      0.89366848     0.67875637     1.5724248      188.31801      107.61531      182.45451      198.24603     -107.84611     -7.874699      -97.683312     -495.81499      36.334727      3697604.9    
    725000   299.62188      0.89311376     0.67869999     1.5718137      188.27832      107.65204      182.47451      123.54238     -65.84188      -80.290582      150.12376     -275.09859      7.7879954      3698492.9    
    726000   300.27198      0.89505159     0.67817149     1.5732231      188.38616      107.60859      182.36037      40.831741     -121.11492     -58.426074     -68.090456     -415.00906      84.428979      3696803.6    
    727000   300.53854      0.89584614     0.67845338     1.5742995      188.25073      107.65397      182.35132      395.68001      17.448385      113.73999      153.03218     -388.79175     -9.4753553      3695520.5    
    728000   299.64218      0.89317426     0.67786495     1.5710392      188.27542      107.65193      182.52939      110.79687     -214.02048     -120.66616      112.11023     -422.69401     -70.852514      3699544.6    
    729000   299.16296      0.89174581     0.67733595     1.5690818      188.26484      107.63529      182.44695      95.169209     -54.65769      -30.331932     -289.57417     -445.16317     -155.37847      3697094.2    
    730000   300.39213      0.89540971     0.67847019     1.5738799      188.37308      107.63084      182.33567      174.86758      99.983601      256.83317     -238.50143     -384.38941     -125.47369      3696810.5    
    731000   299.47525      0.89267669     0.67817376     1.5708505      188.29806      107.62836      182.39789      263.38497      161.40228     -246.00673     -48.892016     -221.72654      78.121762      3696514.2    
    732000   299.70733      0.89336847     0.67978375     1.5731522      188.32365      107.61171      182.45598     -90.131037      67.253939     -248.18764     -28.874984     -371.11706      74.343756      3697621.8    
    733000   299.49559      0.89273732     0.67928992     1.5720272      188.39117      107.61288      182.36408      187.09131      87.947672     -112.21397     -242.73327     -432.86955     -28.73237       3697124.4    
    734000   299.79456      0.89362848     0.6790941      1.5727226      188.46899      107.61407      182.29934      27.940744      321.98603      167.75942      198.50575     -329.15496     -6.2102326      3697379.8    
    735000   301.30356      0.89812651     0.67903008     1.5771566      188.32627      107.61766      182.34029      317.95839      88.325945     -17.510515      99.562706     -320.92289     -162.67115      3695532.9    
    736000   300.19068      0.89480925     0.67965052     1.5744598      188.28543      107.65247      182.42384     -105.97124      19.144913      58.693767      177.15185     -300.98972      25.894454      3697620.5    
    737000   300.60681      0.89604963     0.67758973     1.5736394      188.32609      107.60577      182.31774     -294.56709     -54.649978     -126.12025     -215.17078     -502.27862     -121.22659      3694664.4    
    738000   300.29286      0.89511381     0.67800197     1.5731158      188.38024      107.59762      182.29702      47.301922     -48.588658      52.63656       180.97408     -419.73535     -18.685223      3695026.9    
    739000   300.13421      0.89464092     0.67777214     1.5724131      188.44539      107.59344      182.35186     -444.11797     -123.7232      -128.44961      94.369798     -439.34343      9.9391457      3697272.8    
    740000   299.61236      0.89308539     0.67670048     1.5697859      188.39898      107.5701       182.32579     -141.08131     -35.818367      35.09455       153.48419     -337.99388      2.7385753      3695032.1    
    741000   300.3365       0.8952439      0.67804887     1.5732928      188.34568      107.62651      182.21023      146.84192     -101.85119      126.83671     -43.57858      -493.55299     -52.275174      3693581.3    
    742000   299.72293      0.89341498     0.67936656     1.5727815      188.29987      107.63129      182.34024      51.270323     -26.078664     -279.37995      83.32901      -331.11809      39.981101      3695481.7    
    743000   300.16607      0.89473589     0.67895382     1.5736897      188.42546      107.61992      182.41264      113.24271     -117.51288     -14.026453      24.582835     -216.80919      80.771347      3699024.4    
    744000   299.77018      0.89355582     0.67680904     1.5703649      188.4757       107.59146      182.27378      227.76654      75.249454      242.7715       79.948818     -280.28394      100.4743       3696216.3    
    745000   299.79757      0.89363744     0.67855995     1.5721974      188.40052      107.59784      182.36383      205.5395       225.79438      195.22017      55.305918     -347.31231     -32.544363      3696786.3    
    746000   299.5594       0.89292752     0.6756726      1.5686001      188.51598      107.53382      182.30957     -283.10911      67.388356      9.1010421      129.19223     -337.5901      -46.837028      3695751.1    
    747000   300.80594      0.8966432      0.67870801     1.5753512      188.47434      107.55449      182.29375      196.5049      -263.48703     -59.16241      -2.996687      -369.22192     -96.786047      3695324.2    
    748000   300.81089      0.89665796     0.67713262     1.5737906      188.39279      107.57092      182.30022      99.533622     -119.00101     -325.6981      -62.227667     -405.95899      66.84637       3694420.6    
    749000   299.84959      0.89379252     0.67856523     1.5723577      188.40724      107.5937       182.31787      94.267864     -336.701        28.318839      42.250813     -146.17748      111.58043      3695844.2    
    750000   299.90104      0.89394589     0.67678048     1.5707264      188.44769      107.61894      182.14487     -49.267075     -261.85711     -171.95559     -96.640658     -221.63749     -167.17401      3693996.3    
    751000   300.74754      0.89646913     0.67818421     1.5746533      188.48101      107.59158      182.20906     -309.29774     -182.89437      179.21567      90.187083     -278.11305     -15.445549      3695012      
    752000   299.95117      0.89409529     0.67796114     1.5720564      188.48147      107.63022      182.27539      139.81484     -188.35138      18.544155      14.438108     -340.38785      144.51718      3697693.7    
    753000   299.54305      0.89287879     0.67719944     1.5700782      188.42793      107.59816      182.29151      179.38876     -23.699788     -239.0114       15.532242     -309.06299     -2.3315476      3695869      
    754000   299.75548      0.89351199     0.67801792     1.5715299      188.48482      107.55518      182.22953      230.01141     -105.36186     -160.97315      83.103382     -353.47869     -70.532306      3694251.6    
    755000   300.10258      0.89454663     0.67948237     1.574029       188.4711       107.5947       182.23887     -6.1844537     -3.5822252      43.384727     -222.4084      -249.04195      99.739989      3695529.5    
    756000   300.2225       0.8949041      0.67761389     1.572518       188.51054      107.62936      182.27304      49.338768      62.513098      68.213401      191.83832     -458.58075      81.311102      3698186.6    
    757000   299.844        0.89377584     0.67710089     1.5708767      188.55975      107.59155      182.24301     -98.672022     -404.27727     -38.083358     -213.12349     -205.7045       15.637797      3697243.6    
    758000   300.21529      0.89488258     0.67788943     1.572772       188.52985      107.59779      182.20719     -194.77195     -98.462384      62.26098       55.82195      -369.29336     -1.2436725      3696144.6    
    759000   299.94749      0.89408433     0.67959655     1.5736809      188.50119      107.58682      182.35902     -115.42224      123.16603     -8.8642209     -44.548503     -332.20655      74.443462      3698285.1    
    760000   299.34715      0.89229483     0.67640403     1.5686989      188.46381      107.59083      182.22683     -172.64006      224.07434      50.785753     -62.011675     -301.80494     -53.825682      3695009.4    
    761000   299.89804      0.89393694     0.6765099      1.5704468      188.36053      107.62521      182.19861     -2.8800273      11.457808     -136.1351      -32.758977     -334.50358      55.194466      3693592.6    
    762000   300.41476      0.89547719     0.67780639     1.5732836      188.46986      107.59426      182.26902     -136.80902      245.79048      2.9908752     -39.815418     -443.45738      34.240559      3696101.3    
    763000   299.85142      0.89379798     0.67773688     1.5715349      188.57719      107.54555      182.20466      77.545493      47.455682      32.24372       212.5452      -381.97287      19.735014      3695226.8    
    764000   299.88232      0.89389007     0.67795535     1.5718454      188.50287      107.564        182.28218      272.13843      226.03162      214.81364     -6.2659556     -218.49217      115.70225      3695976      
    765000   299.9492       0.89408944     0.67881786     1.5729073      188.50189      107.61245      182.063       -196.44232      31.644133      127.76242     -119.54413     -435.31418      144.02523      3693175.3    
    766000   300.45287      0.89559079     0.67771571     1.5733065      188.44126      107.58049      182.28949      188.69942      207.12617     -166.00466     -62.829685     -337.11021      13.840514      3695482.4    
    767000   299.76493      0.89354017     0.67744739     1.5709876      188.46862      107.5624       182.30959      118.42673      89.02326      -94.950942      275.45436     -279.31379     -9.6430862      3695805      
    768000   300.11917      0.89459607     0.67697386     1.5715699      188.56456      107.56203      182.19915     -98.834256     -401.21891     -220.94655     -145.93327     -230.40365     -46.995221      3695433.7    
    769000   299.59352      0.89302922     0.67826799     1.5712972      188.49229      107.56966      182.24039     -236.66543     -193.91541     -8.766058      -88.449416     -301.37198      76.407505      3695115.6    
    770000   300.13738      0.89465037     0.67889763     1.573548       188.50643      107.55298      182.19894     -205.41249      273.04991      80.952911     -15.391208     -488.65787      97.026046      3693979.3    
    771000   300.40171      0.89543828     0.67802525     1.5734635      188.3863       107.58001      182.20537      43.987431      82.568459     -122.1129      -135.52393     -415.74082      88.551217      3692683.2    
    772000   299.50977      0.89277959     0.67775607     1.5705357      188.40736      107.61189      182.32914      205.67944      333.08435     -44.960788      92.675983     -243.27624     -1.18014        3696700.1    
    773000   300.2521       0.89499231     0.67579891     1.5707912      188.46009      107.55091      182.12832      254.20797      96.631883      96.442472      13.520671     -446.15811      37.034754      3691568.7    
    774000   301.10136      0.89752379     0.67704768     1.5745715      188.51016      107.57782      182.22494      152.80506     -96.416014      193.86393     -141.22138     -325.6313       5.2852238      3695433.1    
    775000   299.62646      0.89312742     0.67813678     1.5712642      188.44765      107.60146      182.2543       73.838634      15.095723      4.9136236     -53.202732     -324.99429     -55.188069      3695614.6    
    776000   299.73818      0.89346043     0.67822461     1.571685       188.42714      107.64035      182.21962      43.076274     -3.6591143     -101.14682     -87.85055      -374.66061     -43.877423      3695844.5    
    777000   299.6534       0.89320772     0.67891498     1.5721227      188.45         107.5947       182.2879       337.09321      127.10292     -2.2287633     -128.43863     -436.38191     -84.230894      3696109.7    
    778000   300.10151      0.89454343     0.67818562     1.5727291      188.43754      107.61946      182.27896     -102.267       -160.28289     -114.39947      185.76687     -359.5486      -6.4785918      3696534.7    
    779000   300.17163      0.89475245     0.67739746     1.5721499      188.4297       107.60697      182.25699     -221.40608     -144.47495     -16.621295     -101.12199     -147.08677     -80.238359      3695506.2    
    780000   299.83027      0.89373492     0.67745373     1.5711886      188.44403      107.59257      182.16548      183.06692     -67.764433      119.74704     -66.246799     -474.50619      59.517183      3693437.3    
    781000   299.95761      0.89411452     0.67490695     1.5690215      188.40856      107.59876      182.20619     -134.36938      209.1862      -20.249176     -3.0642548     -337.99998     -136.12913      3693779.8    
    782000   299.63401      0.89314991     0.67815193     1.5713018      188.46974      107.59889      182.29832      8.6891728     -23.138618      142.73463     -41.929159     -328.59892      28.235297      3696852      
    783000   300.0106       0.89427246     0.67754116     1.5718136      188.54706      107.59702      182.23303      52.077401      422.63408     -150.36676     -118.70212     -292.53113     -28.754574      3696980      
    784000   299.49294      0.89272941     0.67825036     1.5709798      188.4759       107.59773      182.15672     -10.964262      124.87811      53.875259      75.526793     -290.10204      44.443173      3694061.5    
    785000   299.95568      0.89410874     0.67668524     1.570794       188.44146      107.60171      182.23357     -244.38713     -64.400677      78.402995      229.76791     -281.50068     -107.85367      3695081.5    
    786000   299.46032      0.89263217     0.67961775     1.5722499      188.42608      107.61936      182.21214     -81.787881      51.800335     -160.97247      45.692098     -397.37199      28.086104      3694951.5    
    787000   300.63755      0.89614126     0.67613978     1.572281       188.48265      107.6108       182.10852     -354.96722     -235.3235       12.7357       -15.891568     -263.95639     -36.290193      3693665      
    788000   300.41988      0.89549245     0.67858755     1.57408        188.55693      107.57274      182.14116     -31.451038      145.54785      37.8999       -155.71664     -175.435        97.367699      3694476.1    
    789000   299.70702      0.89336754     0.67702478     1.5703923      188.52128      107.56663      182.2847       30.970727      177.82242      105.57943      84.519107     -267.78047     -77.46095       3696478.1    
    790000   299.6258       0.89312545     0.67697928     1.5701047      188.44392      107.56391      182.25669     -77.353655      316.55164      123.57015      67.890711     -307.77586     -144.08543      3694300.3    
    791000   300.05066      0.89439187     0.67842693     1.5728188      188.45536      107.5984       182.23103     -160.9042       234.91877      57.913588      27.418175     -618.80871     -3.6686257      3695189      
    792000   299.8211       0.89370759     0.67717558     1.5708832      188.38179      107.60559      182.23579      242.51414      252.47349      98.128396      154.53956     -238.65937      52.404236      3694089.6    
    793000   299.62885      0.89313453     0.67412156     1.5672561      188.4129       107.59926      182.1197      -304.32073     -191.80543      50.207517      177.48363     -175.3419       37.863452      3692128.7    
    794000   299.8796       0.89388196     0.67718615     1.5710681      188.43604      107.5325       182.27949      154.521       -172.59285      90.254373     -151.59419     -247.84199      119.22361      3693529      
    795000   300.09048      0.89451057     0.67736945     1.57188        188.42625      107.56353      182.25779     -62.024535      121.08366      40.724214     -256.992       -282.56209      104.55769      3693963.2    
    796000   300.36908      0.89534103     0.67637272     1.5717137      188.42066      107.56334      182.17386     -213.66369      153.16729      39.277977     -356.61788     -222.50034     -37.629089      3692146      
    797000   299.60537      0.89306453     0.68053443     1.573599       188.54803      107.57186      182.2729      -242.12187     -150.13256      129.00131      15.785269     -261.22441     -81.941996      3696943.1    
    798000   300.49854      0.89572691     0.67558559     1.5713125      188.5228       107.54092      182.18233     -174.05915      140.84062      125.36125      88.47841      -257.6335      -27.790548      3693549.3    
    799000   300.11261      0.89457653     0.67751591     1.5720924      188.50997      107.55431      182.22993     -295.59964      107.80342      259.20619      116.75528     -295.29228     -59.489024      3694722.6    
    800000   300.0726       0.89445725     0.67783336     1.5722906      188.47341      107.61416      182.26941     -312.46265     -128.1913      -120.8972       186.88782     -377.41621     -36.285802      3696862.5    
    801000   299.81368      0.89368548     0.67602805     1.5697135      188.40132      107.52984      182.17522     -40.071647      366.56623     -19.586079      11.721197     -313.68672     -80.603682      3690644.8    
    802000   299.34993      0.89230313     0.67710709     1.5694102      188.49797      107.59603      182.25879     -15.972852      34.15188      -13.684346      103.56553     -420.83659     -66.583331      3696505.8    
    803000   300.12326      0.89460828     0.67896586     1.5735741      188.41557      107.622        182.17124     -61.870813     -106.39078      15.858451     -48.841308     -249.14172     -145.63907      3694006.5    
    804000   299.86062      0.89382538     0.67702125     1.5708466      188.48873      107.61574      182.19159     -316.61123     -418.8618       64.868939     -118.65028     -314.79197     -72.769899      3695638.6    
    805000   300.51937      0.895789       0.67898988     1.5747789      188.46344      107.61959      182.17144      116.82886      26.17123      -29.713969     -87.778861     -408.83933      95.590487      3694866.5    
    806000   299.89807      0.89393703     0.67741729     1.5713543      188.48314      107.63122      182.25166     -152.91044     -172.00878     -4.5486121      90.068184     -179.95033     -83.553366      3697279.3    
    807000   299.26832      0.89205986     0.67778872     1.5698486      188.4079       107.65914      182.45111      283.33338      124.43367      35.242873     -140.86583     -281.88134     -120.78356      3700807.9    
    808000   299.40352      0.89246287     0.67722286     1.5696857      188.42978      107.56804      182.22529      98.623325     -219.33522     -183.21401      76.437652     -188.99522     -118.26182      3693528.4    
    809000   299.8755       0.89386976     0.6776315      1.5715013      188.51779      107.59524      182.24625      11.283179      39.01708      -139.06653     -246.60705     -205.84057     -52.403688      3696613.2    
    810000   299.81147      0.89367889     0.67745305     1.5711319      188.45732      107.56568      182.26631      119.32191     -93.638756     -126.48453      83.874959     -454.22457     -47.911545      3694818.9    
    811000   300.3461       0.89527252     0.67730975     1.5725823      188.51759      107.56823      182.20397     -99.845647      264.4736      -152.4156      -225.26175     -269.62778      11.483538      3694823.7    
    812000   300.17352      0.89475809     0.67974506     1.5745032      188.48546      107.58683      182.29691     -22.840175     -358.08869      26.147576      69.517282     -379.6706       193.54488      3696717.5    
    813000   299.75896      0.89352238     0.68006493     1.5735873      188.48159      107.62185      182.32463      122.35841     -75.444009     -176.37811     -129.69763     -287.56112     -137.84064      3698407.2    
    814000   299.99244      0.89421833     0.67926792     1.5734862      188.44948      107.60199      182.3145       108.1314       32.568524     -86.695356     -262.75822     -255.81359     -136.95445      3696889.4    
    815000   300.41045      0.89546434     0.67809157     1.5735559      188.38961      107.59331      182.25905     -311.42789     -108.33147     -271.85856      9.8645388     -336.57432     -129.02972      3694293      
    816000   300.77707      0.89655714     0.67521927     1.5717764      188.47172      107.56036      182.30918     -233.41859     -41.142991      50.824754      52.525153     -363.36486     -151.95615      3695787.4    
    817000   299.85041      0.89379497     0.67751919     1.5713142      188.38527      107.66316      182.2571      -53.290114     -27.562228      122.16694     -178.44433     -492.82245      15.645536      3696566.6    
    818000   300.19361      0.89481799     0.67645258     1.5712706      188.43622      107.60242      182.29019     -11.042543      43.617301      84.896287      56.99057      -444.13301     -80.306354      3696151.2    
    819000   300.40083      0.89543566     0.67856366     1.5739993      188.46686      107.60393      182.12863     -30.072227      167.38403      183.74348     -129.28121     -304.48608     -106.84349      3693527.6    
    820000   300.21043      0.89486812     0.67851059     1.5733787      188.37527      107.60262      182.27201      18.038443      204.02434      22.37551      -255.29588     -319.6062      -38.581336      3694594      
    821000   300.19124      0.89481091     0.67955567     1.5743666      188.46084      107.60071      182.39289     -327.70275     -98.534913     -102.2779      -76.770225     -281.39138      97.125787      3698657.7    
    822000   299.75208      0.89350186     0.67720852     1.5707104      188.52064      107.61977      182.31329      46.661456     -86.736723      235.82447     -174.91047     -352.96548     -21.506139      3698872      
    823000   300.02379      0.89431178     0.67676843     1.5710802      188.49272      107.55382      182.1972      -117.69768     -88.436246      162.32265      158.43847     -214.30617     -108.72979      3693704.1    
    824000   300.37706      0.89536479     0.67767071     1.5730355      188.5231       107.60236      182.30899     -419.32867     -193.48268     -39.395159      109.99001     -303.55897     -93.705154      3698234.4    
    825000   300.07183      0.89445497     0.67683567     1.5712906      188.34457      107.65819      182.20739     -133.55237     -315.41641     -98.346605     -149.68498     -90.90474      -103.23272      3694589.2    
    826000   299.6676       0.89325005     0.67751524     1.5707653      188.48289      107.59657      182.26237      96.505733     -227.6494      -13.138268     -153.41562     -384.99795     -41.427511      3696301.3    
    827000   299.72927      0.89343387     0.67705695     1.5704908      188.37875      107.61281      182.14882      132.10947     -138.21354     -50.3909       -186.89774     -329.5432      -3.7559749      3692514.7    
    828000   299.86282      0.89383194     0.67883216     1.5726641      188.34978      107.64509      182.20618      35.654918     -27.629774      335.75173      24.244614     -170.80255     -166.81882      3694217.5    
    829000   300.32809      0.89521882     0.67782764     1.5730465      188.35361      107.59551      182.24004      130.00746     -110.66902     -125.57919      8.7212482     -227.54736      22.736164      3693277.2    
    830000   300.08706      0.89450037     0.67491284     1.5694132      188.43831      107.58039      182.22457      320.64902     -27.718008      206.32307      100.34711     -359.85437     -9.2071324      3694105.1    
    831000   299.77554      0.89357179     0.67736664     1.5709384      188.48824      107.58045      182.26159      1.435462      -36.149551      164.72036     -22.452431     -304.47551     -167.8134       3695836.9    
    832000   300.15113      0.89469136     0.67747183     1.5721632      188.46807      107.60904      182.29643     -12.793855      9.1189748     -2.6052339      64.92335      -234.08592     -10.088989      3697129.7    
    833000   300.21785      0.89489023     0.67786678     1.572757       188.46795      107.60706      182.25133     -219.8935       59.302168     -106.15207     -240.32546     -340.93351     -120.22846      3696144.9    
    834000   300.64051      0.8961501      0.67537873     1.5715288      188.37856      107.58393      182.23157     -122.97387      0.91644246     189.33129     -102.18858     -448.22992     -38.371793      3693197.1    
    835000   300.55731      0.89590209     0.67655331     1.5724554      188.37047      107.59019      182.33444     -81.016231     -80.437938      194.13697     -210.03689     -362.40679     -295.38964      3695338.1    
    836000   300.11053      0.89457032     0.67745916     1.5720295      188.44906      107.59892      182.18895     -107.64116     -464.0477      -209.75159      96.991432     -422.58076      2.4220778      3694229.8    
    837000   299.71188      0.89338204     0.67904562     1.5724277      188.35739      107.63983      182.31244     -119.17867     -533.49839     -47.024314      20.860066     -396.16348     -111.9648       3696340.6    
    838000   300.18036      0.89477848     0.67646876     1.5712472      188.40984      107.61454      182.27555      57.793598     -3.1150902     -146.33708     -83.753364     -260.586       -111.40131      3695753.2    
    839000   300.45158      0.89558694     0.67838952     1.5739765      188.5116       107.57876      182.30239     -264.40267     -41.673759     -324.42792     -174.54574     -208.70262      7.2201538      3697064.2    
    840000   300.14251      0.89466565     0.67684323     1.5715089      188.41859      107.57836      182.27204     -114.23794      316.80614     -124.88943     -147.09155     -289.30911      5.7240539      3694611      
    841000   299.86355      0.89383412     0.67732163     1.5711557      188.38165      107.61491      182.37033      109.65742      58.255715     -202.77908     -34.443775     -382.87498     -35.992854      3697134.2    
    842000   300.45682      0.89560255     0.67901129     1.5746138      188.39257      107.61822      182.22997      37.192627     -177.04093      117.7333       124.58084     -386.57172     -163.9984       3694616.7    
    843000   299.8295       0.89373264     0.67545761     1.5691903      188.47016      107.60345      182.20001     -15.227969      216.67217      59.873078     -203.00724     -298.73618     -160.81833      3695023.4    
    844000   300.28332      0.89508537     0.67689656     1.5719819      188.41045      107.5889       182.3518      -244.41131      38.063265      80.213576      14.208172     -320.60121      4.5242352      3696430.1    
    845000   300.23558      0.89494307     0.67575894     1.570702       188.31997      107.59313      182.17964      290.00197      65.382249      44.231157      9.658101      -317.5835      -23.364336      3691311.9    
    846000   299.37751      0.89238534     0.67801078     1.5703961      188.45077      107.58808      182.26565     -82.758721      222.77293      267.86193      183.65112     -316.18012     -126.87074      3695446.4    
    847000   299.55729      0.89292122     0.67762286     1.5705441      188.49228      107.59977      182.34138     -4.9424002      15.389038     -50.775229      29.862085     -118.92916      130.20906      3698198.1    
    848000   300.54696      0.89587124     0.67757769     1.5734489      188.3943       107.61034      182.26532      156.41229      14.756374      33.099572      86.701303     -385.75263     -164.93052      3695096.6    
    849000   300.12111      0.89460185     0.6791287      1.5737306      188.5211       107.58631      182.26733     -106.36656     -141.25669      37.780593     -96.02204      -324.24067     -164.53774      3696798.8    
    850000   299.14719      0.89169881     0.67856007     1.5702589      188.35616      107.62359      182.28096     -35.062579      24.22326      -283.57558     -26.457699     -296.07543     -162.86606      3695120.5    
    851000   299.84038      0.89376506     0.67578171     1.5695468      188.45259      107.55102      182.37331      54.542158     -18.341756     -176.65934      314.03031     -370.78887     -2.6874919      3696391.1    
    852000   300.27897      0.89507241     0.67839421     1.5734666      188.42094      107.55618      182.28912      271.58706      163.54014      103.13872     -25.929538     -234.0425       51.968376      3694241.4    
    853000   300.49306      0.89571059     0.67805063     1.5737612      188.33212      107.60127      182.29284     -57.182255     -84.783585     -60.416757     -98.50211      -306.47647     -51.914275      3694123.4    
    854000   299.77314      0.89356464     0.67660091     1.5701656      188.32727      107.61478      182.28277     -390.42306     -260.5325      -248.72491     -129.82875     -299.82954      27.439766      3694288.2    
    855000   300.25458      0.89499971     0.67842963     1.5734293      188.4389       107.62892      182.20094     -24.198368     -113.28166      94.641934      55.097395     -279.82735      7.8495035      3695303.8    
    856000   300.20001      0.89483705     0.67696969     1.5718067      188.44148      107.63083      182.31065     -235.84014      40.642445     -241.21898      128.27        -193.98658     -76.747508      3697645.3    
    857000   299.72577      0.89342345     0.67918512     1.5726086      188.53497      107.61784      182.31464      232.19871     -34.364907      101.87498     -111.69509     -348.27756     -43.211754      3699114.2    
    858000   299.5303       0.89284076     0.67769468     1.5705354      188.40779      107.55842      182.23008      276.61852     -174.40062     -70.851679     -120.70553     -201.79658     -97.798778      3692864.3    
    859000   299.46118      0.89263475     0.67668115     1.5693159      188.39387      107.61906      182.31926     -152.40952     -183.04248     -12.182089      67.599313     -365.68858     -129.84407      3696481.5    
    860000   299.82026      0.8937051      0.6758318      1.5695369      188.41146      107.64401      182.18874     -195.01012     -225.56349      258.37385      90.80852      -338.1302      -158.29149      3695036.4    
    861000   299.59932      0.89304653     0.67814069     1.5711872      188.52396      107.58498      182.18608      143.1468       263.52579      0.12998499    -54.543164     -282.00847     -3.7515528      3695161.2    
    862000   299.82798      0.89372809     0.67622806     1.5699562      188.44503      107.56719      182.26056     -69.295398      113.85807      25.603562      287.97285     -406.99083     -85.893407      3694513.3    
    863000   300.1576       0.89471063     0.67761527     1.5723259      188.41918      107.62337      182.30418      120.94714     -43.39096      -39.763857     -25.963934     -320.67826     -59.303704      3696820.1    
    864000   299.58439      0.89300201     0.67617084     1.5691728      188.39231      107.60566      182.2708      -154.26253      3.8083164     -85.895187      138.53131     -191.21185     -64.657962      3695008.2    
    865000   299.4785       0.89268637     0.67715496     1.5698413      188.341        107.58034      182.29567      36.16266       156.89916      76.647085     -136.38504     -356.18573     -36.137387      3693636.4    
    866000   300.48278      0.89567992     0.67809232     1.5737722      188.46019      107.59392      182.28573     -178.16243     -159.12448      133.36665     -62.253501     -449.55669     -78.222471      3696238.9    
    867000   299.92348      0.89401277     0.67752866     1.5715414      188.53711      107.61216      182.20388     -380.18579     -196.56342      142.77449     -284.45707     -369.11978      11.098852      3696713.6    
    868000   300.5413       0.89585438     0.67620517     1.5720595      188.37422      107.61727      182.17606     -217.88215      129.69132     -61.829981     -139.22713     -312.49411     -49.120053      3693131.2    
    869000   300.57742      0.89596203     0.67677912     1.5727412      188.40405      107.6659       182.3163      -100.40367      131.65692      1.0035629      92.279917     -271.80699     -139.47743      3698230.1    
    870000   300.82107      0.89668831     0.67766612     1.5743544      188.34335      107.63815      182.27675     -81.706043     -65.928695     -136.42668     -12.464912     -256.69297     -233.97587      3695283.8    
    871000   300.41688      0.89548349     0.67599181     1.5714753      188.45485      107.61196      182.22021      10.218407     -46.058241      51.140374      61.250051     -315.97766     -139.58882      3695425.1    
    872000   300.29531      0.89512111     0.67602371     1.5711448      188.41102      107.58927      182.25311     -69.150091     -233.73718     -73.302023      28.828905     -308.83792     -47.950802      3694453.4    
    873000   299.71787      0.89339988     0.67696217     1.570362       188.45241      107.62119      182.32895     -200.12865     -118.94103     -0.51300944    -41.61079      -278.06047     -136.62988      3697899.5    
    874000   299.34151      0.89227803     0.6762827      1.5685607      188.44806      107.5604       182.27547     -9.8506429      184.00382      108.65549      46.996994     -251.33215     -87.809335      3694641.5    
    875000   299.54712      0.89289092     0.67857154     1.5714625      188.42667      107.58935      182.34536      168.77504     -63.966645      179.66685     -60.367038     -213.54471     -29.517513      3696633.5    
    876000   300.64326      0.8961583      0.67798132     1.5741396      188.45291      107.5931       182.26363      235.17858     -26.849246     -25.857104      37.035175     -311.249        121.87733      3695619.7    
    877000   300.28539      0.89509156     0.67781766     1.5729092      188.49228      107.61412      182.25123     -206.95147      83.101438      120.70219      4.2413065     -244.75865     -85.278504      3696862.5    
    878000   300.0456       0.89437679     0.67599622     1.570373       188.40859      107.57662      182.35415     -248.2957       57.266423      13.715421     -0.35553324    -335.21817      57.912414      3696019.5    
    879000   300.24601      0.89497416     0.67675361     1.5717278      188.43135      107.57688      182.21606      275.70229      59.351939     -176.3898       88.344911     -291.57719      2.1254619      3693675.6    
    880000   300.75708      0.89649757     0.67560798     1.5721055      188.38401      107.59806      182.22986      9.2478958      102.45172     -65.656456     -25.997985     -190.30424     -28.01344       3693754.5    
    881000   299.93532      0.89404806     0.67824837     1.5722964      188.47602      107.60435      182.35444     -95.40818       113.18151      7.5966063     -152.81468     -296.37803     -123.5913       3698301.2    
    882000   300.40712      0.89545441     0.67719397     1.5726484      188.47726      107.57646      182.25851     -387.2057      -13.46837       1.438103       16.000506     -277.32805     -17.578131      3695421.8    
    883000   300.69502      0.89631256     0.67595022     1.5722628      188.45458      107.55265      182.2523      -151.14517      423.0999       64.625392     -21.574825     -229.52492      77.570333      3694033.5    
    884000   300.11238      0.89457585     0.67737546     1.5719513      188.3958       107.61371      182.19275     -283.93431      135.30903      237.01713      11.647534     -242.07641     -94.96562       3693770.5    
    885000   299.50341      0.89276062     0.6762149      1.5689755      188.46652      107.64873      182.15742      244.48786      121.11371      192.81069     -27.165165     -273.88465      73.153273      3695642.9    
    886000   300.39552      0.89541982     0.6783231      1.5737429      188.38684      107.62533      182.22523     -126.4452      -119.95982     -61.376821      88.875253     -295.33856     -16.60425       3694652      
    887000   300.10923      0.89456645     0.67728885     1.5718553      188.47203      107.61451      182.25814     -16.895874     -41.047214     -9.5730673     -203.72424     -329.67286     -22.965123      3696619      
    888000   299.83849      0.89375943     0.67713856     1.570898       188.47579      107.62466      182.21972      463.71058      128.92413      20.136774      152.12487     -359.38456     -26.67308       3696262      
    889000   299.59623      0.89303729     0.67641272     1.56945        188.44892      107.64109      182.24161     -14.972758     -332.62602     -31.11037      -155.81046     -242.18629      5.8101262      3696743      
    890000   299.68937      0.89331494     0.67706676     1.5703817      188.50015      107.58326      182.24247      138.8936      -96.866075      40.075255      158.81587     -393.05807      28.931819      3695779.1    
    891000   299.32668      0.89223383     0.67774961     1.5699834      188.44902      107.5819       182.25908      486.16239      192.6448       129.97065     -40.731904     -252.31812     -43.8279        3695066.7    
    892000   300.83195      0.89672074     0.67702993     1.5737507      188.50611      107.57452      182.17567      394.79677      242.29781     -0.012768389   -32.804363     -340.52305      67.749666      3694241.2    
    893000   300.3772       0.89536521     0.6769349      1.5723001      188.39957      107.56422      182.2653       70.635172      181.20233     -62.057325      118.97481     -269.82582     -37.47465       3693616      
    894000   300.66462      0.89622197     0.67563568     1.5718576      188.37628      107.62946      182.31508      34.278223     -349.84169     -110.75741     -56.015549     -326.47995     -129.96791      3696408.5    
    895000   300.25537      0.89500205     0.67677897     1.571781       188.46425      107.62037      182.19753      249.62004     -260.85739     -61.486112     -292.41487     -370.52501      15.055917      3695438.2    
    896000   300.26745      0.89503808     0.67919245     1.5742305      188.43538      107.61339      182.19816      420.4049       29.019107      148.25358     -245.02987     -300.72357     -37.559469      3694645.2    
    897000   299.64031      0.8931687      0.67799969     1.5711684      188.40868      107.59143      182.22423     -114.57046     -122.10093     -128.25457      54.935464     -251.83135     -8.4502998      3693896.3    
    898000   300.28251      0.89508296     0.67586865     1.5709516      188.40911      107.59378      182.29224     -3.8098266     -17.834822      239.97929      103.70914     -287.00506     -104.66987      3695364.1    
    899000   300.23322      0.89493604     0.67710248     1.5720385      188.4726       107.60403      182.1729      -69.816765     -329.55944     -37.842691     -31.190654     -240.32616     -184.55162      3694541.2    
    900000   300.33656      0.89524407     0.67652429     1.5717684      188.59387      107.57732      182.17544      99.46652      -126.61279     -134.09091      13.455996     -296.9648      -139.34987      3696052.6    
    901000   300.7711       0.89653935     0.67730445     1.5738438      188.49884      107.52648      182.23697     -21.726675      128.94383     -200.11772     -150.23982     -212.48054     -4.9886368      3693691.2    
    902000   300.18802      0.8948013      0.67875653     1.5735578      188.54516      107.55374      182.31817      110.53361      140.16928     -160.63472      100.17574     -267.02562      128.47749      3697182.1    
    903000   299.81265      0.89368241     0.67699557     1.570678       188.49399      107.58886      182.18291     -255.95139     -134.23141     -17.454958     -171.80014     -331.16496     -95.974569      3694642.6    
    904000   300.46478      0.89562628     0.67997702     1.5756033      188.39293      107.62104      182.14196      36.906481      55.578844      32.380844      33.160298     -213.54018      40.743343      3692936      
    905000   300.05908      0.89441695     0.67726074     1.5716777      188.55944      107.57884      182.27691      315.83249      37.756664      69.43887       172.19291     -164.42641     -33.219824      3697488.1    
    906000   300.00422      0.89425343     0.67939573     1.5736492      188.55388      107.60415      182.22396     -121.36024      16.750479     -186.52777      93.858988     -228.15835     -78.556616      3697174.9    
    907000   300.44415      0.89556479     0.67837393     1.5739387      188.49282      107.60986      182.19298     -176.9352      -227.22917     -145.65585      249.88556     -309.91362     -44.643188      3695545.3    
    908000   299.70488      0.89336116     0.67726794     1.5706291      188.4463       107.59587      182.22827      324.71329     -63.684874      137.1691      -39.247085     -296.74487      44.320407      3694868.2    
    909000   300.09589      0.8945267      0.67797249     1.5724992      188.49846      107.59856      182.25876     -212.54146     -269.70853     -57.261955      67.756517     -285.38853     -17.736071      3696601.6    
    910000   300.06933      0.89444752     0.67629726     1.5707448      188.43425      107.56084      182.22262      219.41921      157.3043       24.78123      -32.465113     -317.50428     -5.6395092      3693314.7    
    911000   300.98798      0.89718584     0.6776824      1.5748682      188.42515      107.57604      182.22892      131.29562     -71.207374      259.47191      22.704538     -305.10834     -92.33079       3693785.9    
    912000   300.2707       0.89504777     0.67480057     1.5698483      188.47826      107.59539      182.12336     -62.965605     -200.93987      313.76381      87.361957     -233.82073     -49.393704      3693350.9    
    913000   300.04504      0.89437512     0.67643828     1.5708134      188.50134      107.6124       182.24215     -19.009519      153.62956      93.206141      75.394718     -255.90303     -0.23930168     3696796.8    
    914000   299.74218      0.89347235     0.67727075     1.5707431      188.45542      107.59426      182.23844      157.21416      59.79753       41.52895       69.955385     -136.40352     -16.181805      3695198.1    
    915000   299.60846      0.89307376     0.67733584     1.5704096      188.49462      107.56641      182.16972     -283.189       -47.272639     -13.132561     -198.11662     -192.84837      8.2706673      3693616.7    
    916000   300.13924      0.8946559      0.67708977     1.5717457      188.51212      107.56489      182.16553     -424.85812     -120.79284     -149.96634     -9.5703922     -272.88095     -71.442069      3693822.6    
    917000   299.71543      0.89339261     0.67839221     1.5717848      188.39524      107.58768      182.22333     -91.202305      368.20727      24.368569     -216.04984     -409.94585     -16.83747       3693486.2    
    918000   299.83948      0.89376238     0.67712345     1.5708858      188.45759      107.60659      182.19481     -50.859898     -477.55752      98.784987     -36.5626       -296.87258     -175.33228      3694779.4    
    919000   300.61894      0.89608581     0.67881236     1.5748982      188.48597      107.56047      182.2322       99.5203        15.528695      55.761976     -35.132259     -303.35979     -95.822126      3694509.8    
    920000   300.40099      0.89543613     0.67867338     1.5741095      188.51199      107.58449      182.12738     -172.96286     -180.50668     -35.41503      -9.3840955     -304.82898     -16.64883       3693719.3    
    921000   300.03588      0.89434781     0.67960263     1.5739504      188.44085      107.5636       182.28582      104.20393     -171.16005     -155.69617      14.639108     -335.3822       59.118185      3694819.7    
    922000   299.55817      0.89292385     0.67725635     1.5701802      188.56353      107.6224       182.27186      228.47128      171.55829      87.448652     -152.85089     -300.7982      -44.855         3698963.2    
    923000   300.03647      0.89434958     0.67945202     1.5738016      188.46178      107.59982      182.23579      87.097667     -27.888456     -58.260317     -101.15038     -326.60327     -33.736677      3695459.8    
    924000   299.8001       0.893645       0.67782287     1.5714679      188.47124      107.59764      182.19694      84.4319       -349.1653      -39.498701      112.30512     -229.85197     -194.3287       3694782.7    
    925000   299.9313       0.89403607     0.67825134     1.5722874      188.50978      107.56936      182.12202      178.64119      253.80545      51.121718     -101.43476     -347.25997     -28.970685      3693047.9    
    926000   299.84343      0.89377416     0.67907704     1.5728512      188.44133      107.53615      182.17646      4.2965122      47.880346     -1.5841059      9.7647938     -281.21871      23.507293      3691670.3    
    927000   300.82768      0.89670801     0.67702583     1.5737338      188.50699      107.6024       182.21802     -286.33535     -182.86941     -192.10693      154.45927     -400.08654     -51.268267      3696074.7    
    928000   299.10217      0.8915646      0.67826182     1.5698264      188.52892      107.54478      182.20962     -155.78337      73.682618      18.297421     -69.210871     -434.33668      98.087184      3694354.9    
    929000   300.27948      0.89507394     0.6780581      1.573132       188.44462      107.55812      182.19893      91.982135      302.37139      130.5257      -48.025032     -232.60288     -101.60006      3692944.4    
    930000   300.25178      0.89499136     0.67870345     1.5736948      188.40435      107.58762      182.18232      434.57772      142.24158     -87.052093     -14.972732     -206.34653     -322.88033      3692831.2    
    931000   300.59479      0.8960138      0.67828228     1.5742961      188.45796      107.58118      182.32013     -28.050534     -68.339834     -10.922067     -67.987566     -380.52724      8.4310241      3696454.9    
    932000   299.63639      0.893157       0.67867395     1.5718309      188.36463      107.56488      182.2363       379.49808      201.45248      54.099371      41.261331     -341.32138      70.966322      3692365.8    
    933000   300.49933      0.89572928     0.67558849     1.5713178      188.45023      107.57302      182.15685     -187.58939     -277.46107      119.87793      167.47024     -310.69317     -72.280703      3692712.8    
    934000   300.35508      0.89529927     0.67664356     1.5719428      188.44929      107.53959      182.11842      133.82167     -28.584887     -129.13358     -62.619701     -342.52229     -100.64402      3690768.1    
    935000   299.07908      0.89149578     0.6760221      1.5675179      188.411        107.50963      182.2476       54.28527      -122.02463      32.282055      190.95112     -329.62704     -81.590519      3691606.9    
    936000   300.59335      0.89600952     0.67663582     1.5726453      188.46591      107.61442      182.23775      81.521014      129.56646      103.10141      52.39235      -256.39532     -77.05047       3696082.1    
    937000   299.73866      0.89346186     0.67770308     1.5711649      188.44116      107.6174       182.24543     -41.570365      220.03995     -125.73772     -88.387483     -152.71342     -87.625985      3695854.9    
    938000   300.09184      0.89451462     0.67903742     1.573552       188.54883      107.60134      182.16036      181.467        209.07066      69.450326     -1.9991051     -302.43395     -18.390721      3695688.9    
    939000   300.71055      0.89635887     0.67695545     1.5733143      188.52753      107.59361      182.12726     -17.057432     -109.98629     -117.37992     -153.1479      -196.63244      36.18835       3694334.5    
    940000   300.01804      0.89429464     0.67716194     1.5714566      188.48816      107.57677      182.15201     -11.914706      3.1470123      56.10392      -125.72238     -201.22314     -153.24957      3693486.8    
    941000   299.27593      0.89208255     0.6780905      1.570173       188.45664      107.60931      182.26672      35.679246     -214.75431     -217.68188     -44.673264     -216.82456      46.09762       3696312.6    
    942000   300.02601      0.8943184      0.67569821     1.5700166      188.49013      107.59273      182.23026     -89.571361     -75.313359     -166.30791     -26.885999     -268.78552     -106.25714      3695660.4    
    943000   299.95019      0.89409238     0.6792498      1.5733422      188.51507      107.60948      182.3769       95.122906      32.28514      -87.604533     -95.422266     -215.05144      23.360195      3699699.5    
    944000   300.50318      0.89574075     0.68121473     1.5769555      188.5401       107.6079       182.24295      160.45181      94.99349       19.876828      23.001184     -214.27145     -96.514335      3697418.6    
    945000   299.42449      0.89252538     0.67667872     1.5692041      188.4621       107.6118       182.26306     -175.54542     -20.123997     -14.523253      21.047495     -246.77182     -158.93506      3696431      
    946000   300.15464      0.89470182     0.67617321     1.570875       188.42259      107.56928      182.15003      164.94158      208.67385      33.964114     -89.431364     -196.38343      53.655066      3691904.6    
    947000   299.904        0.89395471     0.6774681      1.5714228      188.35881      107.58332      182.19121      38.635582      127.19947     -61.760431      26.95967      -388.03798     -50.625696      3691971.2    
    948000   299.42836      0.89253692     0.67755658     1.5700935      188.41988      107.58665      182.21212      37.479578      52.529009      139.63741      45.83002      -190.00902     -41.616558      3693706.3    
    949000   299.55334      0.89290947     0.67823747     1.5711469      188.46149      107.62652      182.30113      38.283552     -260.60158     -43.012261     -36.911626     -283.60596     -117.95706      3697696.7    
    950000   299.63898      0.89316472     0.6774468      1.5706115      188.47434      107.53215      182.22735      27.981879     -120.16379     -26.478873     -122.61603     -400.59257      59.786607      3693210.8    
    951000   299.97389      0.89416302     0.67803462     1.5721976      188.44618      107.596        182.16471     -95.141632     -537.99118     -109.89326     -48.364162     -463.94923     -75.290893      3693581.7    
    952000   300.35816      0.89530847     0.67605257     1.571361       188.42523      107.55462      182.20643     -146.77224     -272.79958      4.6400847     -114.96587     -362.46883      4.8555368      3692596.2    
    953000   300.49866      0.89572727     0.68019705     1.5759243      188.48468      107.60174      182.29087      137.23266      239.67419      33.454798      106.98595     -374.7414      -140.82183      3697092.1    
    954000   299.61747      0.8931006      0.67667242     1.569773       188.51255      107.61399      182.22723     -16.570965     -325.50677     -328.15809     -53.72463      -309.17563     -34.676173      3696768.8    
    955000   300.67832      0.89626281     0.67753796     1.5738008      188.43432      107.58407      182.1901       255.1585       203.55132     -45.696598     -49.530008     -252.80817      22.565042      3693454.5    
    956000   300.89407      0.8969059      0.6780437      1.5749496      188.39902      107.60458      182.28943     -72.203014     -35.875202     -93.098964     -133.53709     -326.37139     -72.734929      3695480.2    
    957000   300.32137      0.89519879     0.67840913     1.5736079      188.50545      107.58834      182.19866     -302.26371      152.99041      74.471837     -103.54109     -427.35163     -143.7099       3695169.2    
    958000   299.94014      0.89406241     0.67704893     1.5711113      188.4461       107.61771      182.23086     -20.696175      55.551857      104.96702     -164.23235     -506.2521       27.289171      3695666.8    
    959000   300.04938      0.89438804     0.67658594     1.570974       188.36608      107.58276      182.21543      103.32494      112.56523     -74.072469     -57.49455      -296.9141      -64.513969      3692585.3    
    960000   299.10157      0.89156283     0.67639594     1.5679588      188.52834      107.60805      182.1865      -100.45522      111.22678     -17.716944      47.835158     -273.70304     -26.182075      3696047.9    
    961000   300.44642      0.89557156     0.67797242     1.573544       188.51393      107.58655      182.20939     -363.21439     -131.30157      21.430409     -134.86247     -303.27138     -44.075147      3695491.3    
    962000   300.32784      0.8952181      0.67524618     1.5704643      188.46616      107.54112      182.27325     -107.12412      263.6696      -136.23247      25.078878     -377.78827     -130.45776      3694288.9    
    963000   300.47896      0.89566854     0.67647435     1.5721429      188.39807      107.61444      182.21829      53.1058        261.2733       129.62836      63.770538     -328.37314     -110.61183      3694358      
    964000   300.58184      0.8959752      0.67905882     1.575034       188.35015      107.61728      182.33027      38.066019     -105.19651     -144.5455       102.90294     -288.43513      18.405123      3695785.5    
    965000   299.97212      0.89415774     0.67779475     1.5719525      188.45743      107.61161      182.21045     -90.245435      99.408536     -49.243002      5.6381357     -315.1158       0.56950994     3695265.5    
    966000   300.42512      0.89550807     0.67654791     1.572056       188.44532      107.59763      182.23581     -244.98103      145.50392      49.31222       80.522167     -447.23905     -104.24831      3695062.2    
    967000   299.73298      0.89344494     0.67714759     1.5705925      188.50194      107.58046      182.20721     -121.64995     -218.40176     -6.1245756     -42.920423     -498.47043     -35.526008      3695002.8    
    968000   299.34407      0.89228566     0.67815425     1.5704399      188.47489      107.58702      182.27839      257.4614       225.54873     -24.189674      84.01987      -425.13684     -182.5744       3696141.3    
    969000   300.50524      0.89574689     0.6752683      1.5710152      188.3982       107.56329      182.27645      358.77951      0.89811622     21.196077      39.110398     -327.0392       36.553861      3693783.1    
    970000   299.87418      0.89386581     0.67537886     1.5692447      188.49885      107.60473      182.13573     -194.24224     -63.695073     -95.662734     -34.326666     -267.67189     -45.601584      3694326.1    
    971000   300.4408       0.8955548      0.67629035     1.5718452      188.43813      107.62053      182.29717     -90.342487     -175.43008     -0.36170021     168.36933     -348.93524     -50.069411      3696952      
    972000   300.35739      0.89530616     0.6790211      1.5743273      188.46021      107.62206      182.28648     -110.97932      45.2969       -45.581857      30.382477     -203.71164     -147.63871      3697221      
    973000   299.83411      0.89374637     0.67603244     1.5697788      188.39194      107.55967      182.17985     -70.384125      113.12796     -67.642817      104.28195     -216.74035     -83.730076      3691578.8    
    974000   299.90477      0.89395699     0.67939834     1.5733553      188.36673      107.61191      182.29005     -91.965105      87.070056      12.545675      28.189382     -401.4139       11.255524      3695111.2    
    975000   299.90872      0.89396876     0.67995797     1.5739267      188.46402      107.61972      182.31198     -92.489386     -69.877551     -115.86024     -48.843162     -154.38865     -76.830449      3697732.7    
    976000   299.9704       0.89415261     0.67818463     1.5723372      188.461        107.60039      182.21027      48.016253      103.76827     -133.55514      73.442759     -288.58514     -3.3926379      3694946.6    
    977000   299.97178      0.89415674     0.67721162     1.5713684      188.49628      107.61181      182.26598     -92.133047     -83.00235      -86.065724     -64.607396     -330.69315     -58.376969      3697160.7    
    978000   300.35619      0.8953026      0.67713199     1.5724346      188.41843      107.5926       182.30993      186.5591       162.57718     -142.09088     -26.793212     -285.968       -76.352263      3695865.2    
    979000   299.47326      0.89267075     0.67900373     1.5716745      188.36705      107.58745      182.26237      287.35319      14.245028     -94.649472      122.96952     -346.87959      40.224622      3693716.5    
    980000   299.30518      0.89216975     0.67863723     1.570807       188.41577      107.58693      182.18718     -78.435966      56.133632      109.50376     -171.0193      -391.00752      54.108961      3693129.7    
    981000   300.28057      0.89507717     0.67783692     1.5729141      188.42485      107.57874      182.30009     -73.626997     -100.85336      23.936908      163.89857     -337.12997      57.025437      3695315.2    
    982000   300.10339      0.89454905     0.6765693      1.5711184      188.33345      107.58233      182.20123      177.59327      307.28663      145.17145      43.247716     -391.01877     -122.262        3691643.1    
    983000   299.54695      0.8928904      0.67571606     1.5686065      188.35805      107.60725      182.2399      -141.27774     -26.719723      113.18126     -57.109347     -324.69493     -54.537628      3693764.5    
    984000   299.98329      0.89419106     0.67699891     1.57119        188.50961      107.63882      182.22422     -364.58907     -505.73802     -8.6738163     -107.58715     -248.7002      -182.92181      3697502.7    
    985000   299.84279      0.89377225     0.67941482     1.5731871      188.55963      107.5682       182.39227     -20.782584     -68.113756     -141.57178      144.35886     -219.34469     -42.707565      3699466      
    986000   300.83617      0.89673332     0.67953705     1.5762704      188.40373      107.58896      182.33661     -100.90095     -100.14733     -159.07668     -212.66221     -454.88402     -129.53958      3695992.7    
    987000   299.52714      0.89283135     0.67661989     1.5694512      188.4024       107.587        182.25746      47.063528      69.805354      7.9760517      50.539939     -345.89388     -54.294845      3694294.7    
    988000   300.28545      0.89509173     0.67854174     1.5736335      188.44726      107.53116      182.24333      79.410637     -86.946251     -32.100101      341.20381     -338.81933     -18.376583      3692970.1    
    989000   300.55915      0.89590759     0.67753586     1.5734435      188.44064      107.57627      182.17142      260.19769      290.70254      83.939914      46.917749     -374.98225      118.11486      3692931.9    
    990000   299.35531      0.89231916     0.67680885     1.569128       188.44155      107.61684      182.2308      -83.324222     -269.21901     -151.76171     -15.001945     -401.10359      76.538002      3695546.6    
    991000   299.75735      0.89351756     0.67807014     1.5715877      188.41354      107.56242      182.38149     -28.621656      94.416437      56.827617     -76.110423     -371.30457      76.478343      3696182.7    
    992000   300.45705      0.89560323     0.67878204     1.5743853      188.41844      107.5813       182.30394     -98.775868      59.922723      31.362112      34.535737     -317.68748     -103.8538       3695355.8    
    993000   300.35643      0.8953033      0.67807448     1.5733778      188.38509      107.63158      182.33096      100.01781     -159.26398     -56.069734      154.30201     -266.37791     -61.258516      3696976.4    
    994000   300.17421      0.89476014     0.67707329     1.5718334      188.40581      107.61909      182.3057       17.861125     -341.38957     -187.91769      122.74557     -434.84821     -96.33534       3696441.8    
    995000   300.01691      0.89429126     0.67667322     1.5709645      188.40399      107.58956      182.25072     -160.84151      100.68108     -89.593271      21.570752     -354.90618     -76.7214        3694277.3    
    996000   300.11593      0.89458642     0.67710421     1.5716906      188.43392      107.59821      182.30576      198.15213     -49.573974     -36.087739      47.466834     -422.62606     -29.632231      3696277.2    
    997000   300.2584       0.8950111      0.67952926     1.5745404      188.41878      107.63521      182.29973      117.65193     -210.99159      99.418829      141.99626     -443.94872      6.4724826      3697128.6    
    998000   299.61497      0.89309315     0.6802079      1.573301       188.34001      107.59956      182.33655      269.75385     -26.096986      14.302509     -204.94632     -421.15372     -95.019175      3695105.3    
    999000   300.2617       0.89502094     0.67808636     1.5731073      188.38278      107.61188      182.228        101.33204      60.415826      93.977541     -0.88850483    -332.18106     -50.229988      3694166.9    
   1000000   300.04521      0.89437563     0.67857895     1.5729546      188.47838      107.58313      182.16904      58.597486      26.721693     -89.717386      28.824616     -380.26965     -48.806249      3693858.9    
   1001000   300.76545      0.8965225      0.67780396     1.5743265      188.52162      107.56405      182.29525     -106.56961     -44.110185     -209.29674     -130.31737     -440.71895     -156.14903      3696610.3    
   1002000   299.55778      0.89292269     0.67813171     1.5710544      188.47284      107.59459      182.27545     -1.0678476     -299.51786     -51.644527     -343.45007     -350.03668      76.047895      3696301.7    
   1003000   299.56758      0.8929519      0.67605549     1.5690074      188.32252      107.61379      182.24986     -241.53285      233.98292     -4.6408499      36.26729      -357.69843     -46.606573      3693493.9    
   1004000   299.76813      0.8935497      0.6770297      1.5705794      188.40621      107.55996      182.27853     -178.7214       2.7561082      92.712016     -95.338604     -492.73843     -17.862856      3693868      
   1005000   299.87728      0.89387507     0.67771985     1.5715949      188.38776      107.58779      182.23287      290.85147      36.03159      -114.39802      94.258693     -167.54712      113.5056       3693536.2    
   1006000   300.42124      0.8954965      0.67889002     1.5743865      188.35801      107.5676       182.36652     -311.87197      270.13095     -164.98749     -56.176751     -305.26524     -205.82157      3694967.9    
   1007000   300.36544      0.89533015     0.6793111      1.5746412      188.40517      107.58272      182.41062     -143.94002      5.9897434     -104.66684     -28.827254     -413.87129     -45.947105      3697306.3    
   1008000   300.14233      0.89466512     0.67925631     1.5739214      188.46191      107.59552      182.29429     -280.65537     -56.479053     -247.52573      228.69958     -444.86672     -77.850704      3696500.9    
   1009000   299.66832      0.89325219     0.67740416     1.5706564      188.41869      107.60191      182.1742       174.66615      304.81425      129.31532      86.562139     -259.90241     -101.03505      3693437.9    
   1010000   300.46245      0.89561933     0.67542373     1.5710431      188.37729      107.61775      182.26854     -252.82187      123.78662     -139.30807     -15.947342     -530.14501     -119.94582      3695082.5    
   1011000   301.17844      0.89775357     0.67768627     1.5754398      188.43315      107.61632      182.41383     -210.37881      194.53962      3.7294128     -258.65763     -267.24222     -107.65909      3699075.5    
   1012000   300.25768      0.89500894     0.67693965     1.5719486      188.51272      107.60823      182.26346     -193.50895     -87.352521     -37.588842     -18.47995      -329.46577     -21.01145       3697309.2    
   1013000   300.83444      0.89672815     0.67707597     1.5738041      188.47567      107.61408      182.21134     -158.04388     -14.067371     -22.746887     -109.11683     -299.32556     -45.575588      3695726.2    
   1014000   300.00823      0.8942654      0.67707757     1.571343       188.40729      107.58891      182.34795     -29.964431      42.738         46.07333       5.4125985     -281.13978     -11.225245      3696290.7    
   1015000   299.78177      0.89359037     0.67742824     1.5710186      188.36115      107.59249      182.32383     -260.15624      27.895695     -198.29779      56.607663     -371.5269      -90.016947      3695019.6    
   1016000   300.34832      0.89527912     0.6791448      1.5744239      188.43312      107.65729      182.19009     -112.49624     -358.8623       104.46682     -130.61348     -343.76631     -106.80842      3695944.4    
   1017000   299.275        0.89207977     0.67753023     1.56961        188.45225      107.58936      182.29299      196.94251     -79.652827      34.123527     -145.04273     -235.30688     -43.088914      3696073.6    
   1018000   299.29409      0.89213668     0.68052037     1.572657       188.44819      107.61591      182.44329      4.2436542     -214.36424     -71.026914     -45.226997     -433.77873     -67.854759      3699954.3    
   1019000   299.93694      0.89405289     0.67910206     1.573155       188.43348      107.64941      182.33721      427.92612      27.786752      28.559132      11.194014     -270.05373      62.024165      3698665.3    
   1020000   299.90844      0.89396795     0.67424886     1.5682168      188.37411      107.63143      182.17488      244.18667      71.15329       62.269601      77.099852     -340.52971     -126.95237      3693591.2    
   1021000   299.89939      0.89394095     0.67816087     1.5721018      188.45352      107.61734      182.23153     -12.426383      21.323587     -171.87817     -46.870909     -388.62865     -49.398813      3695813.2    
   1022000   299.67664      0.893277       0.67981293     1.5730899      188.41717      107.59491      182.42514     -98.374009      14.958699     -296.2824      -304.62875     -351.16195      94.819423      3698255.2    
   1023000   299.57234      0.8929661      0.67696362     1.5699297      188.39948      107.5856       182.36227      180.96416      268.19659     -82.885839      245.3556      -395.75649     -61.907446      3696314      
   1024000   300.04022      0.89436076     0.67778653     1.5721473      188.40452      107.61829      182.2796       227.15919     -1.6081725     -29.225817     -189.73639     -324.04211     -41.475393      3695859.6    
   1025000   299.50547      0.89276676     0.68003858     1.5728053      188.34352      107.63862      182.31978      106.71964      68.746941      244.18066     -11.114882     -226.41597     -62.548347      3696175.6    
   1026000   300.00999      0.89427065     0.67813196     1.5724026      188.36418      107.60323      182.23686     -99.64518      -457.51682      51.256163      283.67681     -401.04782      126.96986      3693685.1    
   1027000   300.06071      0.89442183     0.67917724     1.5735991      188.38313      107.61119      182.2264      -10.135831     -134.02648      119.95608      21.428056     -300.53032      137.45695      3694117.7    
   1028000   300.36413      0.89532626     0.67592664     1.5712529      188.40521      107.62689      182.23487     -223.80002     -147.27095     -176.30861      77.527385     -252.45221      19.474252      3695261.3    
   1029000   300.32149      0.89519916     0.67844987     1.573649       188.38895      107.64485      182.31478      243.62543     -66.829113      86.134735     -125.72411     -284.36708     -133.16793      3697179.5    
   1030000   299.84372      0.89377502     0.67861885     1.5723939      188.43528      107.60761      182.29452      166.23828     -156.80777      215.59749      93.657211     -383.84882     -31.858089      3696398.5    
   1031000   299.83772      0.89375714     0.67775874     1.5715159      188.46773      107.5928       182.35765     -34.772178      34.060636      46.932661      125.60292     -280.36326      46.622042      3697806.7    
   1032000   300.62747      0.89611122     0.67893523     1.5750464      188.37826      107.61917      182.17779      191.7944       253.21499      204.54041      44.506581     -478.03673     -46.723794      3693310.7    
   1033000   300.24715      0.89497758     0.67518675     1.5701643      188.47628      107.5911       182.18899     -240.4273       93.640947     -53.154379     -149.44285     -351.38187     -74.855111      3694495.8    
   1034000   300.31525      0.89518056     0.67937291     1.5745535      188.41593      107.56505      182.40489      105.59214      139.98966      110.59459      27.28106      -422.43529      37.983521      3696794.1    
   1035000   300.28734      0.89509735     0.67516199     1.5702593      188.47615      107.56642      182.22359     -130.71878      136.25819      62.688612     -172.39172     -364.80876      6.9595094      3694347.3    
   1036000   300.31387      0.89517645     0.67888748     1.5740639      188.48774      107.6302       182.2899      -321.3204      -296.65623      87.428899      270.73715     -423.08809     -65.645748      3698110.4    
   1037000   299.20613      0.8918745      0.67713887     1.5690134      188.39111      107.67697      182.25929     -349.9354      -81.313979     -23.134899      28.718186     -288.92214      85.410701      3697199.7    
   1038000   299.88967      0.893912       0.67884203     1.572754       188.47535      107.62563      182.27576     -227.20755     -296.73051     -114.76397     -135.84148     -404.38976      72.767782      3697423.5    
   1039000   300.0292       0.89432788     0.67618524     1.5705131      188.31022      107.61543      182.06727      111.2781      -47.899069     -6.5730357      169.0259      -278.42724     -11.785602      3689608.9    
   1040000   299.80878      0.89367087     0.67738162     1.5710525      188.41523      107.588        182.34502      42.170797     -1.2238343      135.15285      49.737283     -387.29989     -87.846961      3696355.8    
   1041000   299.94111      0.89406532     0.67620304     1.5702684      188.36659      107.61402      182.31471     -253.54571      20.066984     -117.82157      106.68905     -281.42705      14.843701      3695680.6    
   1042000   300.27822      0.89507017     0.67821534     1.5732855      188.35134      107.60283      182.32711     -384.71285     -45.673048     -84.556808      24.055971     -340.05564     -172.37112      3695248.7    
   1043000   299.11015      0.8915884      0.67722924     1.5688176      188.34253      107.57493      182.27503      201.57637      339.02454      14.752785      88.766243     -341.13618     -34.199391      3693062.4    
   1044000   300.5354       0.89583679     0.67761457     1.5734514      188.45458      107.62012      182.16716      21.034982     -197.07813      31.26924      -16.563754     -334.80969     -109.47638      3694624.1    
   1045000   299.91805      0.89399658     0.67591904     1.5699156      188.40371      107.63799      182.17466     -160.85288     -216.71532      30.059665      73.935859     -481.97052      60.755576      3694392.3    
   1046000   300.27592      0.89506333     0.67938176     1.5744451      188.47192      107.64198      182.3658      -241.81376     -339.09226      113.28923      270.65685     -326.70837     -105.4305       3699744.7    
   1047000   300.45391      0.89559387     0.67757016     1.573164       188.47755      107.6445       182.29982     -75.042145      446.64712      98.130326      162.24588     -363.40957     -5.0633943      3698603.2    
   1048000   299.94784      0.89408539     0.67928416     1.5733696      188.31765      107.58918      182.39943     -176.452       -12.615232     -9.7536625     -115.43575     -326.12106     -159.2605       3695584      
   1049000   300.1673       0.89473955     0.67775845     1.572498       188.4015       107.58035      182.35386      174.50151     -0.45360134    -0.99096016     310.09461     -303.11172     -117.93386      3696002.5    
   1050000   300.308        0.89515894     0.67785379     1.5730127      188.47568      107.61771      182.30641     -110.51839     -94.430729      4.7613696     -20.40623      -455.76442     -63.954168      3697779.4    
   1051000   300.43805      0.89554659     0.67670639     1.572253       188.3076       107.59471      182.1184       37.826043     -51.890917      49.511532      117.04088     -347.421        37.00201       3689883.1    
   1052000   299.93874      0.89405825     0.67661298     1.5706712      188.39252      107.61921      182.2417       102.05998      449.9582      -66.908855      130.12724     -362.76084     -79.421138      3694887.4    
   1053000   299.90098      0.8939457      0.67730218     1.5712479      188.35994      107.63313      182.39428      54.946238      48.412556      37.242893     -29.98687      -377.23159      34.2623        3697819.7    
   1054000   299.5421       0.89287596     0.6781125      1.5709885      188.3598       107.60913      182.24758     -137.30041     -56.792581     -81.875452     -254.22658     -366.41228     -6.4730143      3694018.8    
   1055000   299.80227      0.89365148     0.67708004     1.5707315      188.41031      107.56169      182.22675     -208.69239      152.71659     -77.14195       129.76196     -311.9286      -159.94594      3692958.2    
   1056000   300.20763      0.89485978     0.6765512      1.571411       188.39265      107.57174      182.22961     -104.76828      148.6526       24.923205      51.901487     -270.77554      42.049994      3693015.3    
   1057000   299.88884      0.89390951     0.67794014     1.5718496      188.4046       107.58712      182.30777     -145.15211     -319.91413      58.116115      5.2226276     -543.01273      33.488156      3695361.7    
   1058000   300.22196      0.89490248     0.6781775      1.57308        188.41497      107.59904      182.22545     -21.39778       110.14512      31.571598      177.6003      -255.90275      23.74093       3694305.9    
   1059000   300.50054      0.89573288     0.67803293     1.5737658      188.41816      107.57754      182.27164      97.560642      117.94868      5.9243867      49.893105     -177.4677      -135.91156      3694566.4    
   1060000   300.85912      0.89680173     0.67925638     1.5760581      188.40972      107.62744      182.24383     -254.46165      45.004136     -65.577195     -29.29599      -191.88539     -28.180833      3695550.3    
   1061000   300.54853      0.89587591     0.67842026     1.5742962      188.34207      107.61998      182.21158      161.53302     -255.31292      83.802624      264.40947     -382.56198     -78.351384      3693314      
   1062000   299.54891      0.89289626     0.67846449     1.5713608      188.32233      107.61322      182.30594     -52.074358      266.34335      28.492435     -165.36094     -277.74802      8.6976805      3694607.1    
   1063000   299.65259      0.89320531     0.6787807      1.571986       188.43128      107.59692      182.41737      24.984157     -65.619989     -209.49094      110.29897     -313.38589     -17.861313      3698444.1    
   1064000   299.4288       0.89253821     0.67758038     1.5701186      188.48834      107.59836      182.26286      77.16381       43.289477      166.58019     -85.298481     -312.56621      18.222365      3696479.8    
   1065000   300.27038      0.89504681     0.67577197     1.5708188      188.42872      107.59153      182.16504     -237.93281      1.0245923      79.340883     -115.27717     -425.47004     -67.068374      3693092.8    
   1066000   300.57935      0.89596778     0.67652756     1.5724953      188.40988      107.61721      182.35157      74.689049      108.95864     -45.030407      35.950476     -400.31573     -83.534831      3697386.9    
   1067000   300.52105      0.89579401     0.68027859     1.5760726      188.40155      107.66062      182.39135      185.09277     -71.36491      -151.88065     -126.97565     -387.13609     -175.87557      3699521.8    
   1068000   300.00253      0.89424841     0.67713734     1.5713858      188.39391      107.56815      182.23755     -193.27906      133.87815     -87.354702      124.51622     -309.50374     -140.14938      3693077.5    
   1069000   300.29196      0.89511113     0.67617492     1.571286       188.38082      107.5603       182.177        45.276708      59.641851      108.66532      148.91096     -277.12294      1.2225462      3691324.5    
   1070000   299.92888      0.89402886     0.67458867     1.5686175      188.3309       107.57751      182.19782     -288.20715     -93.159743      139.36216      11.764976     -202.84905     -91.935482      3691358.6    
   1071000   300.02528      0.89431621     0.67862989     1.5729461      188.3746       107.64105      182.25526     -19.577922     -216.00382      107.48134      113.66219     -269.5207      -45.541229      3695560.7    
   1072000   300.69469      0.89631159     0.6775148      1.5738264      188.29716      107.6023       182.27678     -19.017851     -103.50276      80.78088      -81.594868     -250.59313     -154.24286      3693147.7    
   1073000   299.83973      0.89376313     0.67929472     1.5730579      188.37999      107.62997      182.27434     -59.869311     -74.881855      147.11838      106.30926     -364.79562     -75.18761       3695672.9    
   1074000   299.77325      0.89356497     0.67746278     1.5710278      188.36736      107.60164      182.15201     -77.991271      117.46087      288.03139     -193.93023     -338.77872     -100.44027      3691973.1    
   1075000   300.44091      0.89555514     0.67662795     1.5721831      188.38828      107.60643      182.24296      81.678233     -36.587018      109.92203     -52.339356     -386.53003     -172.91408      3694391.2    
   1076000   300.40296      0.895442       0.67673121     1.5721732      188.42992      107.57614      182.35674     -170.87458     -188.92421     -216.28118     -70.283044     -123.78423     -163.15283      3696473.8    
   1077000   299.80141      0.8936489      0.67820586     1.5718548      188.25314      107.57481      182.25926     -126.57234     -108.3862       54.494072     -89.819424     -346.83307     -122.50791      3690986.4    
   1078000   299.97038      0.89415256     0.67860059     1.5727532      188.40893      107.5578       182.21714      264.61217     -154.3657      -25.82481      -57.639765     -137.73327     -17.650017      3692603.1    
   1079000   299.87074      0.89385556     0.67650565     1.5703612      188.38721      107.58911      182.35388      56.862742      9.0706903      51.049447     -80.779331     -304.61921     -56.648455      3696023.7    
   1080000   300.44204      0.89555851     0.67599824     1.5715567      188.40874      107.59262      182.24614      408.66318      181.37352     -55.803072     -0.81246805    -321.0733       31.799976      3694382.7    
   1081000   300.23964      0.89495519     0.67705303     1.5720082      188.38986      107.58275      182.20135     -62.018042     -208.49281     -13.132397     -253.15004     -292.80521     -196.83483      3692765.6    
   1082000   299.73659      0.89345568     0.67760375     1.5710594      188.3833       107.57813      182.21985     -304.96451     -380.64845     -63.931286     -217.49858     -184.26002     -26.620853      3692853.6    
   1083000   299.41233      0.89248913     0.67783887     1.570328       188.36321      107.60851      182.32542     -42.672279     -83.96719       150.17711      156.54915     -458.92556     -110.67915      3695642.2    
   1084000   300.45178      0.89558753     0.67913843     1.574726       188.34395      107.60949      182.30274     -43.65319       195.40838      41.363579      23.782921     -339.38371     -172.90708      3694838.2    
   1085000   299.81131      0.89367841     0.6769036      1.570582       188.38238      107.56082      182.27724      372.30894      390.16438     -38.716317     -17.27029      -296.40978     -75.85147       3693404.1    
   1086000   299.78217      0.89359154     0.67679544     1.570387       188.35205      107.54935      182.22198      263.96139      84.178391      98.142352      104.38919     -263.82535     -208.86922      3691296.1    
   1087000   299.63488      0.89315251     0.67823395     1.5713865      188.3208       107.58153      182.33181      23.004202     -84.700136     -192.24067     -7.0083434     -402.99921     -166.34508      3694013.2    
   1088000   299.37133      0.89236692     0.67708383     1.5694507      188.35162      107.58562      182.28092     -168.98658      193.51301     -226.12447      90.680083     -342.12342     -74.707728      3693726.9    
   1089000   299.74057      0.89346754     0.67774754     1.5712151      188.51113      107.57278      182.24417     -78.634523     -98.794185     -88.921805      106.19094     -351.48583     -54.691507      3695668.8    
   1090000   299.9133       0.89398242     0.67777795     1.5717604      188.39205      107.53697      182.366       -234.80036      183.948       -18.368045      53.022656     -341.02246     -274.1694       3694572.9    
   1091000   300.41392      0.89547467     0.67827083     1.5737455      188.40994      107.60772      182.21886      104.44829     -194.88182      147.81551      54.08324      -254.74025      8.0031676      3694371.3    
   1092000   299.79918      0.89364225     0.67914684     1.5727891      188.33894      107.58374      182.25893     -94.339262      165.45656      148.39421      136.22934     -250.62181     -1.2765934      3692968.2    
   1093000   300.09139      0.89451328     0.67824892     1.5727622      188.24382      107.54482      182.23199      167.56172      61.53878      -128.14604      86.389419     -389.07023     -56.180657      3689222.6    
   1094000   299.79619      0.89363334     0.67814354     1.5717769      188.33584      107.59343      182.30069      39.622061     -100.91093     -22.680272     -7.6294316     -207.35231     -157.15333      3694086.2    
   1095000   300.04797      0.89438385     0.67737803     1.5717619      188.35581      107.59206      182.29691      231.67789      299.17469      55.250303     -166.02078     -221.45293     -26.525619      3694354.2    
   1096000   299.8601       0.89382385     0.67764467     1.5714685      188.33638      107.60669      182.19267      47.84959      -256.04955      7.4112719      138.40152     -292.36274     -164.16937      3692362.9    
   1097000   299.45299      0.89261033     0.67683184     1.5694422      188.28937      107.61131      182.17695      105.60205     -240.81275      40.12823      -277.12675     -384.37735     -3.0684607      3691281.1    
   1098000   300.57271      0.89594799     0.67728572     1.5732337      188.40505      107.5731       182.22893      32.42247      -336.06819     -33.781201      54.924023     -303.34374     -91.211738      3693291.4    
   1099000   300.61824      0.8960837      0.67724075     1.5733244      188.36991      107.55024      182.22532      371.29542      88.21806       40.500276     -123.01828     -376.87866     -155.20322      3691744.4    
   1100000   299.92305      0.89401149     0.67540258     1.5694141      188.31661      107.61056      182.28161     -449.27515     -8.3311842     -67.478285     -83.978604     -293.50586     -15.348997      3693910.4    
   1101000   300.1048       0.89455326     0.67702295     1.5715762      188.3249       107.6169       182.32638     -3.6204649     -64.929296      29.763482     -15.494105     -328.23115      51.665841      3695198.1    
   1102000   300.02689      0.89432101     0.67618617     1.5705072      188.3099       107.57327      182.19387     -101.32368      122.03691     -59.116757     -16.423655     -214.14524     -40.764505      3690721.5    
   1103000   299.37086      0.89236551     0.67562056     1.5679861      188.40681      107.58942      182.2142      -49.802359      2.6940382     -3.4551057      20.339855     -425.38408     -87.172093      3693587.2    
   1104000   300.17079      0.89474995     0.67857233     1.5733223      188.34528      107.57841      182.22652      348.81165      213.39936      211.2025       2.8717853     -361.05764     -10.020746      3692253      
   1105000   300.06219      0.89442622     0.67519147     1.5696177      188.29787      107.58273      182.23272     -150.61837      199.244        164.82059      23.764383     -563.49592     -17.371377      3691597.2    
   1106000   300.47302      0.89565084     0.67562436     1.5712752      188.28622      107.57241      182.32768     -277.13696     -11.860901     -121.63057      83.866425     -262.70297     -100.9448       3692938.1    
   1107000   300.48256      0.89567927     0.67724021     1.5729195      188.31835      107.60441      182.26141      96.051199      286.69479     -21.607349     -125.04163     -283.72428     -91.38883       3693324.4    
   1108000   300.10078      0.89454126     0.67782759     1.5723688      188.35156      107.60906      182.2598      -165.00487      310.80532      126.39187      171.40703     -244.99339     -88.785432      3694102.5    
   1109000   300.42619      0.89551123     0.67567795     1.5711892      188.22533      107.63058      182.16019     -422.45854     -88.187679      2.8286183      158.03028     -237.59877     -305.50878      3690347.2    
   1110000   300.95494      0.89708734     0.67707709     1.5741644      188.30451      107.58855      182.21385      272.36066      155.52483      278.5547       171.84388     -383.8656      -128.80899      3691545.1    
   1111000   300.51686      0.89578152     0.67786231     1.5736438      188.3972       107.61034      182.24161      213.30422      33.086174      56.43997       240.18255     -300.8702      -57.715404      3694672.8    
   1112000   300.13431      0.8946412      0.67816346     1.5728047      188.29239      107.60962      182.35398     -250.02537     -215.67846      49.547431     -56.709362     -390.74895     -89.419258      3694869.4    
   1113000   300.8233       0.89669494     0.67505829     1.5717532      188.35069      107.60687      182.27657      203.72892     -104.87562     -20.472542      35.299099     -327.02819     -32.074746      3694350.2    
   1114000   300.43358      0.89553329     0.67653236     1.5720656      188.28964      107.57766      182.25804      26.165329     -77.790169      57.180273     -184.67683     -422.36974     -186.52542      3691774.9    
   1115000   301.45593      0.89858069     0.67683612     1.5754168      188.41757      107.56546      182.20072     -186.7556      -89.348932     -54.70558       80.845295     -378.86672     -117.73594      3692702.6    
   1116000   300.03859      0.89435589     0.67419309     1.568549       188.37448      107.61189      182.19263      374.02802      73.032545      189.37454      63.932446     -283.48463     -21.455103      3693287.5    
   1117000   299.67396      0.89326901     0.67775484     1.5710238      188.30076      107.63565      182.34938     -157.01194     -258.61288     -68.872893      139.08623     -381.31798     -167.91735      3695834.5    
   1118000   300.07002      0.89444958     0.6778361      1.5722857      188.31372      107.60426      182.30376     -227.22072      6.9451307     -171.89394      156.69717     -323.26127      103.13764      3694086.3    
   1119000   299.18329      0.89180641     0.67616256     1.567969       188.35768      107.60141      182.1992      -113.04966     -137.25513     -30.671926     -111.79476     -254.04285     -16.010285      3692731.9    
   1120000   299.02288      0.89132827     0.6780583      1.5693866      188.33853      107.6099       182.19588      137.40315      150.123        80.533095      58.603971     -482.74124     -5.4871506      3692580.4    
   1121000   299.9563       0.8941106      0.67672903     1.5708396      188.28297      107.62758      182.25693      7.5939197     -200.4773      -79.367178     -18.399474     -221.69757     -29.481252      3693334.6    
   1122000   300.0085       0.8942662      0.67855067     1.5728169      188.31697      107.6637       182.42128     -33.485881     -233.7559      -53.658692      185.90563     -319.95741      40.707069      3698573.6    
   1123000   300.63475      0.89613292     0.67585494     1.5719879      188.27909      107.6196       182.30859      31.89835      -27.544272      19.923097      30.299085     -254.02048     -189.16153      3694031.3    
   1124000   300.22426      0.89490934     0.67760154     1.5725109      188.25996      107.61402      182.22068     -115.91739     -360.73846      56.592458      214.16087     -272.59894     -3.7103345      3691683.6    
   1125000   300.10269      0.89454695     0.67763085     1.5721778      188.34136      107.61455      182.17195     -111.35021     -151.50342      54.351055     -48.371079     -293.54802     -248.81619      3692310.4    
   1126000   299.91069      0.89397463     0.67795539     1.57193        188.33256      107.59606      182.30324      41.488394      144.62644     -95.878626     -85.185987     -368.81187      46.69074       3694163.8    
   1127000   299.54504      0.89288471     0.67582089     1.5687056      188.31063      107.59039      182.41269     -233.78398     -304.56368     -104.42115      0.040096846   -369.04748     -224.41055      3695756.6    
   1128000   299.01056      0.89129153     0.67807864     1.5693702      188.43462      107.56837      182.34062     -428.90666     -270.33045     -54.041869     -1.37357       -353.71776     -165.89558      3695972.3    
   1129000   300.04994      0.89438973     0.67762981     1.5720195      188.32983      107.58524      182.20198      251.43936      322.97957      120.91842      123.29843     -391.08949      5.6558886      3691686.9    
   1130000   300.14621      0.89467667     0.67718713     1.5718638      188.30384      107.61871      182.28927     -8.390181       28.356537     -72.791304     -123.5457      -321.40921     -187.75825      3694095.2    
   1131000   299.64802      0.89319168     0.6767466      1.5699383      188.29404      107.65794      182.33456      161.7018       13.020131     -16.032841      3.897098      -401.22949     -52.959674      3696167.7    
   1132000   299.74096      0.89346871     0.67550558     1.5689743      188.26108      107.59525      182.26688     -48.356425     -46.269056     -63.633426     -74.773344     -270.06294     -95.561411      3691997.3    
   1133000   299.58896      0.89301564     0.67757533     1.570591       188.33124      107.5859       182.23811     -223.34026      13.634548     -75.063717     -21.541471     -298.2806       12.102377      3692469.6    
   1134000   299.66993      0.89325699     0.67759294     1.5708499      188.41604      107.61118      182.12882     -89.335241     -284.95231      89.75019      -207.70893     -235.87375     -4.6754063      3692784.4    
   1135000   299.40293      0.89246111     0.67769871     1.5701598      188.37365      107.60648      182.25568     -153.56646     -214.40442      37.503569     -67.624836     -312.34572     -152.94697      3694363.7    
   1136000   299.77452      0.89356875     0.67843617     1.5720049      188.32451      107.597        182.33584     -149.35209      49.290415     -137.9973       94.446815     -347.82344     -172.02533      3694698.7    
   1137000   300.53007      0.89582089     0.67574468     1.5715656      188.23686      107.59086      182.27746      84.659218      92.186192      31.579136     -28.347354     -237.08093     -13.1427        3691586.2    
   1138000   299.63119      0.89314149     0.67870775     1.5718492      188.29731      107.61736      182.32823      259.50213      189.50114      170.28908      95.128474     -331.60996     -81.385336      3694710.3    
   1139000   299.70412      0.89335889     0.6773699      1.5707288      188.22212      107.56847      182.23699      147.51634      163.59704     -52.876483     -92.971845     -120.89309     -104.76656      3689709.4    
   1140000   299.81291      0.89368318     0.67664465     1.5703278      188.25566      107.59079      182.25047      8.7455687      99.365228     -71.356342      60.550572     -265.3931       26.582658      3691405.9    
   1141000   300.13983      0.89465768     0.6782704      1.5729281      188.32249      107.5952       182.35545     -48.330143      320.59307     -38.725519      64.217774     -363.84284     -119.62562      3694995      
   1142000   299.79916      0.8936422      0.67903057     1.5726728      188.40711      107.58737      182.39828     -382.19949      40.656324      174.39224      95.727918     -418.04708     -44.658767      3697254.3    
   1143000   299.64652      0.89318721     0.67695185     1.5701391      188.35572      107.60996      182.33267      7.2122788      111.56333     -21.481312      13.561704     -354.10859     -95.226322      3695691.9    
   1144000   299.91841      0.89399766     0.6771798      1.5711775      188.28722      107.5549       182.33049     -13.033788     -13.979222      86.388867     -55.14633      -333.78747     -230.44358      3692413.7    
   1145000   300.36174      0.89531914     0.67588262     1.5712018      188.3756       107.63296      182.35756      70.198902      389.0425      -121.86346      1.3113986     -405.64699     -48.936751      3697376.7    
   1146000   300.69777      0.89632079     0.67647802     1.5727988      188.25138      107.62944      182.23634      252.49926     -207.9651       195.24335     -159.85411     -282.23452     -129.45237      3692361.4    
   1147000   300.3721       0.89535002     0.67758214     1.5729322      188.34045      107.57745      182.42075      252.85518      113.14459      46.117108     -88.872831     -206.62493      73.959185      3696060.8    
   1148000   300.30888      0.89516158     0.67704115     1.5722027      188.41086      107.56182      182.33401     -20.724928      111.98395     -54.77936       123.25127     -244.30499      21.215929      3695147.3    
   1149000   300.61652      0.89607859     0.67871748     1.5747961      188.41498      107.57592      182.2437      -122.61532     -28.215864      47.788446     -35.250269     -308.8932      -66.089215      3693881.8    
   1150000   299.85139      0.89379788     0.67897022     1.5727681      188.41624      107.6104       182.28058     -262.47014      98.427558      137.56079     -41.871684     -291.2788       62.576851      3695838.3    
   1151000   300.06803      0.89444365     0.6772447      1.5716884      188.32851      107.63607      182.25737      4.0110579     -386.11018      87.081313      45.415547     -291.21691     -162.6437       3694528.2    
   1152000   299.73651      0.89345546     0.67588776     1.5693432      188.3508       107.56682      182.22562      514.2342       384.62286     -95.633799      95.108554     -248.43014     -19.229734      3691945.1    
   1153000   299.41789      0.89250572     0.67570894     1.5682147      188.41045      107.57466      182.29871     -117.9469       55.602026     -46.579649     -125.73222     -350.6064      -102.4121       3694864.9    
   1154000   299.70729      0.89336833     0.6762323      1.5696006      188.38517      107.58975      182.24924      157.4362      -18.394365     -37.47392       54.795815     -331.97088     -104.25445      3693884.8    
   1155000   299.97409      0.89416363     0.67428579     1.5684494      188.33013      107.53596      182.26582      322.21904      164.20556     -78.278905     -140.93149     -277.40453      34.091995      3691295.2    
   1156000   299.98412      0.89419351     0.67873238     1.5729259      188.37789      107.59952      182.36475      40.641688      481.59509      87.321355     -1.4748227     -169.54116      81.211672      3696418.9    
   1157000   299.89124      0.89391668     0.67672276     1.5706394      188.42372      107.61505      182.18965     -282.80051     -385.8803       5.3014927     -123.50633     -296.45144     -41.565801      3694301.1    
   1158000   300.62776      0.89611207     0.67909535     1.5752074      188.32436      107.62487      182.23773      224.84484     -82.392784     -14.176216     -48.018656     -411.24527     -99.638271      3693664.5    
   1159000   300.24401      0.89496822     0.67694724     1.5719155      188.35094      107.59457      182.38947      55.217616     -266.61412     -196.34354     -114.44908     -376.39686     -47.645653      3696220.6    
   1160000   300.1759       0.89476518     0.67681227     1.5715774      188.356        107.57788      182.25963     -38.952459     -233.24367     -96.528245     -182.66046     -416.98339     -62.438322      3693115.7    
   1161000   300.74607      0.89646473     0.67774053     1.5742053      188.43008      107.60037      182.28356      542.45285      173.02494     -79.048272     -11.512183     -206.60726     -96.846656      3695825.8    
   1162000   299.67146      0.89326155     0.67916818     1.5724297      188.34996      107.60248      182.30088     -24.678258     -38.91802      -38.567195      103.75533     -238.85798      79.896656      3694678      
   1163000   300.19811      0.89483139     0.67679246     1.5716239      188.32053      107.61501      182.34768      8.5534983      247.39023      52.74635       104.32433     -365.60949     -115.45677      3695479.3    
   1164000   299.52922      0.89283756     0.67871314     1.5715507      188.32013      107.60981      182.30056     -215.62348     -53.570327     -42.643212      40.602423     -119.31995     -40.119677      3694337.9    
   1165000   300.09503      0.89452414     0.67804554     1.5725697      188.34219      107.62045      182.23464      101.78833      48.033958      119.83534     -53.65124      -270.68103     -103.07659      3693799.7    
   1166000   300.51428      0.89577384     0.67809132     1.5738652      188.26464      107.58483      182.18819      104.01207      228.15807      127.93764      110.74997     -387.0492      -53.981592      3690116.1    
   1167000   299.82279      0.89371263     0.676794       1.5705066      188.33002      107.63195      182.16649     -9.6988858     -104.26347      86.84793      -7.2939453     -388.99015      122.56635      3692574.2    
   1168000   300.0024       0.89424802     0.67724593     1.5714939      188.33248      107.57683      182.47777     -206.40581     -129.20312     -166.55687     -130.73288     -411.53804      28.309037      3697038.3    
   1169000   299.95547      0.89410811     0.678731       1.5728391      188.34421      107.61472      182.3398       234.23865     -262.32289     -68.034055      141.72698     -391.2093       7.0535982      3695774.2    
   1170000   300.06683      0.89444008     0.67774338     1.5721835      188.34388      107.5939       182.2071      -223.61198      121.65233      69.192591      98.694374     -236.62653      6.3021349      3692363.7    
   1171000   300.20213      0.89484336     0.67951683     1.5743602      188.32975      107.58961      182.30832     -88.807079      88.751172     -110.74392     -227.60147     -290.22341     -31.316328      3693990.6    
   1172000   299.90408      0.89395493     0.67816609     1.572121       188.41991      107.56736      182.28725     -375.60927      136.74133     -72.889897      146.35414     -323.05252     -49.770335      3694567.5    
   1173000   299.72582      0.89342359     0.67954251     1.5729661      188.35589      107.58697      182.29334      68.825445      59.29721      -18.027348     -237.86325     -423.65138     -37.10392       3694109      
   1174000   299.73828      0.89346073     0.67485271     1.5683134      188.29987      107.59979      182.09345     -48.025654     -246.17358      195.35169     -67.16001      -294.26387     -106.94324      3689400.4    
   1175000   300.62539      0.89610503     0.67771503     1.5738201      188.42354      107.64914      182.316        11.674617     -83.466779     -154.90219      177.99959     -412.18213     -92.291285      3698030.6    
   1176000   300.06171      0.89442481     0.67717        1.5715948      188.27999      107.60134      182.34302     -25.951014      322.6992      -250.03307      143.85407     -443.29661     -166.50745      3694119.9    
   1177000   299.75191      0.89350134     0.67676643     1.5702678      188.46536      107.60423      182.32852     -365.37767      113.5744      -113.29234     -79.82685      -236.35765     -179.42355      3697562.3    
   1178000   300.03655      0.8943498      0.67869969     1.5730495      188.38532      107.60735      182.3018      -74.289582      45.727781      34.268304      42.00153      -272.6519       104.47165      3695557.4    
   1179000   300.40088      0.8954358      0.67749719     1.572933       188.28438      107.55953      182.27         31.2901        46.292403      18.932278      78.511214     -284.71224     -8.1944148      3691291.7    
   1180000   299.88916      0.89391047     0.67806667     1.5719771      188.28522      107.61301      182.20504     -239.3165      -278.08126      50.143447      32.81662      -337.136       -17.861703      3691827.2    
   1181000   300.16682      0.89473811     0.67819572     1.5729338      188.33512      107.61487      182.33319     -231.48355     -160.83815     -1.444236       74.014835     -319.46367      42.267436      3695467.1    
   1182000   299.4341       0.89255401     0.67729006     1.5698441      188.40408      107.5791       182.27399     -129.78527     -51.828518     -111.48774     -316.0008      -268.99253     -172.01168      3694391.4    
   1183000   299.86035      0.8938246      0.67553726     1.5693619      188.37014      107.58055      182.248       -23.584446     -124.37254     -88.105686      51.463842     -327.846       -121.36429      3693249.1    
   1184000   300.39048      0.89540481     0.67843037     1.5738352      188.30065      107.61539      182.34117     -159.70297     -138.51272     -7.3578908     -46.023341     -250.24434     -38.619515      3694970.2    
   1185000   299.55979      0.89292869     0.67683112     1.5697598      188.25         107.61171      182.15162      175.84728     -0.086878317    41.162893     -133.77126     -334.02235     -148.67506      3690010.1    
   1186000   299.83286      0.89374264     0.67712465     1.5708673      188.29599      107.5923       182.32474     -271.28996     -30.531857     -70.948344     -54.945481     -190.50109     -143.88654      3693753.4    
   1187000   300.01508      0.89428582     0.67629899     1.5705848      188.38827      107.54161      182.31348     -260.52294     -154.91427     -18.242629      86.805045     -297.67809     -65.778584      3693594.1    
   1188000   299.42602      0.89252995     0.67644803     1.568978       188.38534      107.61511      182.20168      199.67628     -55.225217      251.32486      127.82252     -254.62835      43.858955      3693794.6    
   1189000   299.25422      0.89201783     0.67681091     1.5688287      188.39185      107.63266      182.31632      104.15068     -120.8892      -7.0147127      39.778499     -474.12617     -63.077726      3696849.1    
   1190000   300.17066      0.89474957     0.67889127     1.5736408      188.26688      107.59935      182.3539      -289.67353      7.5516979     -119.72311      226.47665     -388.83221      13.64522       3694014.9    
   1191000   300.34266      0.89526227     0.67544291     1.5707052      188.34684      107.60304      182.28302     -83.843175     -210.94216     -43.410578      112.74777     -328.046        32.305007      3694274      
   1192000   299.67474      0.89327132     0.67916924     1.5724406      188.44068      107.61981      182.32082      20.080563     -47.708136     -80.305714     -16.720832     -289.23583      26.048931      3697457.1    
   1193000   300.28354      0.89508605     0.67860441     1.5736905      188.40854      107.60988      182.3157      -129.55294     -439.90809      70.087829      214.87002     -442.36049      40.077937      3696381.6    
   1194000   299.73329      0.89344584     0.67840106     1.5718469      188.3319       107.64313      182.32926     -24.182457     -119.51546      57.399533      42.9739       -188.87716     -56.074141      3696294.4    
   1195000   299.75831      0.89352043     0.67897884     1.5724993      188.31741      107.63389      182.44873      79.762693     -88.029408      73.814881     -61.037489     -422.56042     -1.7213875      3698114.5    
   1196000   299.75788      0.89351915     0.67756618     1.5710853      188.32529      107.60837      182.26132     -306.57812     -468.7313       129.05904      104.83872     -312.74093     -126.90033      3693594.5    
   1197000   300.37587      0.89536127     0.67771555     1.5730768      188.32183      107.55608      182.25087     -182.75544      419.77078     -69.172283      142.91337     -506.18766      24.735989      3691519.9    
   1198000   300.17549      0.89476397     0.67652347     1.5712874      188.32434      107.58087      182.36145     -387.66444     -157.11595     -227.04932     -16.983361     -361.8644       9.2270002      3694660.5    
   1199000   299.99023      0.89421174     0.67889484     1.5731066      188.30335      107.56222      182.24743      238.09344      235.23579     -25.932493      219.50145     -312.74292      23.410357      3691298.8    
   1200000   299.65057      0.89319926     0.67815287     1.5713521      188.29078      107.58834      182.30596      91.60936       33.882829     -309.76537     -249.97169     -329.44887     -136.12435      3693134.6    
   1201000   300.01621      0.89428919     0.67755684     1.571846       188.31902      107.64605      182.37869     -137.99408     -39.804084     -108.62589      20.183909     -399.45328      6.7575091      3697144      
   1202000   299.61753      0.8931008      0.67705031     1.5701511      188.27446      107.58549      182.2902       132.13283     -46.405609     -56.517326      66.775708     -264.81539     -31.335017      3692397.3    
   1203000   299.75069      0.8934977      0.67563541     1.5691331      188.34575      107.55498      182.20295     -82.294795     -76.834804      119.42809     -0.69172059    -365.88181     -43.943666      3690980.4    
   1204000   299.31225      0.89219081     0.67637449     1.5685653      188.30985      107.57715      182.29051     -207.88351      221.84965     -75.918008      194.11116     -273.75612     -176.26505      3692811.3    
   1205000   300.11786      0.89459217     0.67869995     1.5732921      188.36009      107.5789       182.38129     -359.2449      -126.64038      84.427791     -135.51965     -418.86502     -50.863259      3695696.3    
   1206000   299.60609      0.8930667      0.67681702     1.5698837      188.37988      107.61557      182.50354     -139.93958     -209.86412     -291.74344      68.169891     -399.58719     -111.67301      3699822.7    
   1207000   299.90596      0.89396054     0.67721752     1.5711781      188.31172      107.59287      182.26187      138.0854      -76.16461      -1.0527027      197.18894     -432.29855      9.5820097      3692807.4    
   1208000   299.66831      0.89325217     0.67846307     1.5717152      188.27143      107.62135      182.38946      44.89864      -15.81331      -105.77238     -8.6522773     -360.97983     -6.6519018      3695579.6    
   1209000   300.18735      0.89479933     0.6778744      1.5726737      188.27698      107.62571      182.30754      94.958533     -42.180283      128.21882     -58.426316     -366.16111     -172.49061      3694178.7    
   1210000   299.6793       0.8932849      0.6801678      1.5734527      188.35001      107.62911      182.37782     -6.7690988     -24.381354     -8.7071632     -12.479288     -432.6168      -51.154106      3697152.8    
   1211000   300.69807      0.89632166     0.67378198     1.5701036      188.40529      107.59243      182.23221     -92.817011     -102.45645      174.42957      55.527474     -323.16805     -132.08257      3694026.2    
   1212000   299.28303      0.89210371     0.67806899     1.5701727      188.35804      107.57476      182.1797       43.974502      165.37608     -11.380271      65.870285     -428.11162     -94.47802       3691429.2    
   1213000   300.8185       0.89668064     0.67795495     1.5746356      188.29628      107.59492      182.34596      330.89284      242.29562     -3.5063529     -41.450287     -321.1015      -59.684917      3694278.4    
   1214000   300.12451      0.89461199     0.68047276     1.5750848      188.3099       107.62611      182.28266     -34.085773      324.29879      97.465656     -170.51034     -332.25828     -174.86118      3694334.1    
   1215000   300.32072      0.89519686     0.67756401     1.5727609      188.26912      107.6593       182.31289     -64.532432     -42.854473      242.4693      -217.34761     -214.58647     -116.05071      3695285.7    
   1216000   300.07908      0.89447658     0.68039862     1.5748752      188.36299      107.62623      182.36871      335.25655      87.50136       88.130639      72.915625     -241.6293       29.559596      3697124.3    
   1217000   299.60437      0.89306158     0.67875387     1.5718154      188.3359       107.63682      182.34273     -96.047523     -339.9333       89.785765      4.3166374     -246.04275      125.95173      3696429.5    
   1218000   299.73211      0.89344235     0.67658612     1.5700285      188.2642       107.61765      182.26264     -62.557988      28.137832      7.5016793     -8.4806664     -460.35392      64.84928       3692741.4    
   1219000   299.81458      0.89368816     0.67631411     1.5700023      188.23161      107.60539      182.32456      57.877666     -121.94811      86.646564     -168.2113      -258.68218     -7.7536391      3692935.7    
   1220000   299.98621      0.89419976     0.6776668      1.5718666      188.33391      107.61181      182.34372      239.96527      102.7434       94.655956     -276.49275     -349.99588     -51.444939      3695551.6    
   1221000   299.934        0.89404412     0.67761486     1.571659       188.26007      107.62797      182.45307     -221.38846      297.75411     -154.31825      4.0887644     -338.68452      11.823123      3696873.2    
   1222000   300.01226      0.89427741     0.67708553     1.5713629      188.33988      107.63843      182.31218     -143.88937      22.16765       28.48016       16.552657     -456.02282      86.905977      3695943.4    
   1223000   300.34195      0.89526014     0.67862324     1.5738834      188.33776      107.63948      182.27521     -100.87758     -206.59386     -54.970973     -292.95312     -373.9845      -61.843681      3695188.4    
   1224000   300.09857      0.89453469     0.67825007     1.5727848      188.33173      107.62966      182.20694     -147.84681      101.55806      17.458199     -161.62167     -316.44208     -37.952395      3693349.3    
   1225000   301.07198      0.89743621     0.67835796     1.5757942      188.28465      107.60265      182.35885      131.02148      196.30991     -31.56279       153.76964     -175.70218     -242.0097       3694577.2    
   1226000   300.13716      0.89464971     0.67838802     1.5730377      188.2345       107.58861      182.29647     -55.228937     -282.4098      -124.83355     -77.58291      -283.79598      100.72886      3691847.8    
   1227000   299.75567      0.89351255     0.674622       1.5681345      188.26602      107.60148      182.17969     -94.15318      -11.077305      104.51124     -76.521893     -281.80468     -62.628335      3690542      
   1228000   299.80132      0.89364862     0.67683708     1.5704857      188.33651      107.61718      182.32305      191.96695     -13.619371     -113.79654      112.06073     -392.03045      128.93201      3695368.3    
   1229000   300.47759      0.89566446     0.67783985     1.5735043      188.26886      107.61099      182.22648      51.676891      32.340453      9.6005924      28.569663     -318.52451      25.594194      3691871.8    
   1230000   299.72594      0.89342393     0.67581559     1.5692395      188.35224      107.61398      182.24758      127.08747     -364.50677      145.23974      137.30833     -407.84195     -126.91269      3694037.3    
   1231000   299.92606      0.89402047     0.67978428     1.5738048      188.35597      107.5871       182.32874     -95.975158     -113.72415     -5.4995721     -95.376683     -336.60407     -57.392318      3694832.5    
   1232000   300.26625      0.8950345      0.67887121     1.5739057      188.33279      107.60214      182.48083     -240.99654     -105.73346     -24.574829     -208.43277     -488.68912      21.453679      3697976      
   1233000   300.47812      0.89566604     0.67725775     1.5729238      188.37283      107.5727       182.23753     -19.827434      129.52126     -33.582434      25.013679     -280.63081     -75.327832      3692820      
   1234000   299.7684       0.8935505      0.67534435     1.5688948      188.35127      107.58609      182.31289      119.23046      407.66038      62.159045      121.86192     -274.21428      27.138185      3694384.1    
   1235000   300.11583      0.89458614     0.67813339     1.5727195      188.32364      107.63256      182.33379     -73.240171      56.540229     -163.90747     -47.526779     -320.47312     -145.17235      3695861.5    
   1236000   300.04819      0.8943845      0.67840682     1.5727913      188.39829      107.58463      182.32119      275.22943      383.90908     -41.488653     -34.995204     -267.18951     -9.7293689      3695424.5    
   1237000   300.13003      0.89462846     0.67767908     1.5723075      188.38623      107.63268      182.26308      78.058994     -353.13725      34.182135      109.26271     -262.60664     -14.811037      3695660.1    
   1238000   299.44604      0.89258961     0.67789565     1.5704853      188.32822      107.67296      182.31829      218.37403      33.200309      3.9912624     -154.42336     -461.93882     -36.06538       3697024.1    
   1239000   300.51846      0.89578628     0.67883206     1.5746183      188.32075      107.61718      182.1984      -138.32559     -285.01307      245.57943     -86.248985     -397.7481       25.578904      3692532.6    
   1240000   299.46874      0.89265729     0.67707388     1.5697312      188.2682       107.65079      182.26014      63.609018      352.88924     -91.167418      44.865245     -403.27786     -8.8533468      3693906.6    
   1241000   299.80086      0.89364727     0.67796718     1.5716144      188.28236      107.63656      182.34014     -166.52458     -70.618812     -19.330865      117.94852     -313.74846     -67.758495      3695317.4    
   1242000   299.81061      0.89367631     0.67870833     1.5723846      188.37322      107.58395      182.33536     -1.5237446     -70.688065     -89.001484     -141.52216     -414.23683      70.727917      3695196.5    
   1243000   299.24437      0.89198846     0.67842766     1.5704161      188.35316      107.56964      182.34768     -58.494312     -139.40373     -93.06814      -183.59036     -383.35042     -144.08676      3694561.2    
   1244000   299.70755      0.89336912     0.67794762     1.5713167      188.44645      107.5838       182.30601      76.585846      28.46682      -119.94734     -122.06037     -330.69131      66.674414      3696033      
   1245000   300.15415      0.89470034     0.67733516     1.5720355      188.34284      107.58656      182.14531     -294.0762       24.670435      217.7204      -0.11438053    -246.20592     -151.19854      3690839.3    
   1246000   299.82491      0.89371895     0.67817069     1.5718896      188.28729      107.5946       182.28847     -324.06459     -193.74334     -21.048493      111.65063     -314.01948     -83.176675      3692926.6    
   1247000   299.87746      0.8938756      0.67725821     1.5711338      188.31981      107.57564      182.36771     -45.028602      54.754648     -389.86995     -80.198209     -401.97344     -48.706394      3694518.9    
   1248000   300.85031      0.89677546     0.67860361     1.5753791      188.35888      107.56282      182.31664      363.46349     -5.083879      -68.270134     -37.841971     -376.80729     -13.676481      3693810.4    
   1249000   300.7536       0.8964872      0.67692644     1.5734136      188.40553      107.62605      182.32949     -64.322221      63.236631      104.53936      137.56352     -367.90491     -107.11147      3697157.5    
   1250000   299.72459      0.89341991     0.67725374     1.5706737      188.31178      107.61827      182.24428      221.67         37.960974      28.58702       8.9549247     -300.04951     -42.09006       3693324      
   1251000   299.58663      0.89300869     0.6780633      1.571072       188.35323      107.60351      182.36273     -79.935818      130.42946     -266.10134     -213.38515     -403.77502     -200.41537      3696030.9    
   1252000   300.56275      0.89591832     0.67714381     1.5730621      188.44698      107.59765      182.32125      46.699056      33.924555      150.29463      97.599675     -258.52657     -160.48121      3696827.9    
   1253000   299.66437      0.89324042     0.67854836     1.5717888      188.3952       107.64396      182.37419      157.1258       88.669136      71.740999      91.149749     -264.58033     -160.86124      3698476.5    
   1254000   300.43849      0.89554791     0.678934       1.5744819      188.40232      107.6173       182.21587     -204.08232     -108.29427      88.116753      99.432826     -253.69377     -150.56709      3694490.2    
   1255000   299.50742      0.89277258     0.67872616     1.5714987      188.33761      107.59097      182.31077     -394.01942     -55.541159     -166.45064     -127.24156     -424.506       -28.855147      3694240.8    
   1256000   300.26975      0.89504493     0.67766563     1.5727106      188.34998      107.63972      182.35012     -147.47387     -177.53674     -84.226806      105.76212     -187.85046     -56.592602      3696955.1    
   1257000   300.34359      0.89526503     0.67853031     1.5737953      188.33713      107.60807      182.31452      313.24576     -8.8353896      111.43016     -62.574016     -318.73868     -135.31653      3694894.7    
   1258000   300.32096      0.89519756     0.67937223     1.5745698      188.4854       107.58217      182.41098      24.742819      275.61557      20.893977      13.160208     -472.22662     -135.95306      3698869.2    
   1259000   300.17934      0.89477544     0.6799294      1.5747048      188.43683      107.61363      182.3656      -288.69327     -105.63595     -206.59257     -0.29747226    -143.57597     -106.91901      3698077.3    
   1260000   300.59565      0.89601637     0.67995708     1.5759734      188.40253      107.58495      182.29602      138.369       -74.045089      111.68896      119.07188     -238.27353     -83.653869      3695008.6    
   1261000   299.88267      0.89389112     0.67669731     1.5705884      188.37498      107.58539      182.31705     -217.04459     -39.682584      92.298319      67.331425     -295.97005      16.559513      3694909.6    
   1262000   300.65884      0.89620472     0.67827776     1.5744825      188.41177      107.55812      182.27343     -22.870411      602.24287      195.46218     -82.314616     -142.63961     -99.985361      3693810.2    
   1263000   300.09982      0.89453839     0.6764999      1.5710383      188.33485      107.57666      182.32923      85.577239      181.37896      207.64783     -100.72284     -474.99167     -14.737984      3694069.4    
   1264000   300.08131      0.89448322     0.68016987     1.5746531      188.36692      107.57837      182.40963      23.34262       28.797752     -86.386039      57.544109     -282.70456     -167.93763      3696386.4    
   1265000   300.43498      0.89553746     0.68016376     1.5757012      188.41008      107.5677       182.37141      61.132932      88.185386     -156.58386      27.866967     -358.33182     -96.379099      3696092.1    
   1266000   300.32228      0.89520151     0.67788982     1.5730913      188.37683      107.60428      182.30155      137.12576     -158.76029     -85.468883      42.325125     -303.89897     -34.172499      3695280.6    
   1267000   299.71936      0.89340433     0.67758566     1.57099        188.39267      107.63029      182.25107     -61.052683      55.355785      118.06622     -43.666702     -319.70913      12.890892      3695460.8    
   1268000   299.86411      0.8938358      0.67983108     1.5736669      188.34235      107.59399      182.32694      306.14125     -41.198248     -145.7213      -53.304081     -228.90456     -10.258457      3694765      
   1269000   300.06217      0.89442616     0.68003778     1.5744639      188.41774      107.65715      182.35478      173.52159     -221.80161      129.08837     -66.314502     -239.81554     -42.370588      3698978.8    
   1270000   300.10663      0.89455871     0.68001651     1.5745752      188.28913      107.63139      182.38632      151.13554     -118.94152     -228.68159      45.68776      -384.83269     -56.469219      3696208.2    
   1271000   300.23049      0.8949279      0.67789888     1.5728268      188.43312      107.57533      182.27461      171.3197       319.13227      217.98781      106.0848      -414.30836      68.807153      3694844      
   1272000   300.22688      0.89491713     0.6787825      1.5736996      188.43171      107.59073      182.29834      100.90665      82.199824      58.895526      47.46723      -312.69549     -177.27794      3695826.3    
   1273000   301.13839      0.89763417     0.67663273     1.5742669      188.33786      107.62325      182.29659     -168.66403     -274.48077      34.210004      50.348683     -371.59988     -55.729952      3695066.6    
   1274000   299.68978      0.89331616     0.67827048     1.5715866      188.32207      107.63592      182.35516      116.70706      85.592794     -7.9177846      53.535054     -304.88417      87.960027      3696379.3    
   1275000   300.28412      0.89508777     0.67833385     1.5734216      188.35487      107.68451      182.22063      96.833212     -164.18894      205.33976      1.4274075     -460.31928     -122.02776      3695963.2    
   1276000   299.93682      0.89405254     0.67811685     1.5721694      188.40665      107.61867      182.39465      128.33985     -153.58573     -111.54068      33.187816     -400.54937     -133.42209      3698247.2    
   1277000   300.69996      0.8963273      0.67829277     1.5746201      188.29984      107.59003      182.3198       5.7955868      161.32132      74.361896      106.69018     -307.24244     -104.86409      3693650.6    
   1278000   299.94511      0.89407724     0.67724044     1.5713177      188.37187      107.63637      182.3282       77.445527     -315.457       -59.620472      154.95742     -390.43849     -127.09406      3696825.2    
   1279000   299.81933      0.89370231     0.67846623     1.5721685      188.40732      107.62619      182.36231      204.47324      199.66333     -108.16956     -59.22824      -230.94738     -124.83125      3697863.1    
   1280000   299.75935      0.89352352     0.67730958     1.5708331      188.44019      107.63301      182.31344     -72.163114     -23.393937      108.0553      -152.25626     -266.50013     -248.65077      3697751.4    
   1281000   300.58435      0.89598269     0.67723765     1.5732203      188.52589      107.58029      182.28391     -303.5975      -108.38614     -42.804021     -204.46231     -392.84776     -36.005504      3697022.1    
   1282000   300.29537      0.89512128     0.67893149     1.5740528      188.37882      107.60113      182.37603      52.613516      49.489352      26.65307      -219.96802     -402.92308     -16.280787      3696720.9    
   1283000   300.91014      0.89695382     0.67969284     1.5766467      188.45728      107.585        182.35466     -219.98116     -148.73         44.440815      1.7257398     -268.75156     -79.656622      3697273      
   1284000   300.83732      0.89673673     0.67875904     1.5754958      188.41906      107.57596      182.31623     -213.66859     -69.955698      9.4303054      251.60231     -506.07116     -90.561794      3695433.4    
   1285000   299.73904      0.893463       0.67738608     1.5708491      188.3866       107.60517      182.3922      -37.553111      92.274689     -42.675148      45.621974     -273.97055      35.002723      3697340      
   1286000   299.60955      0.89307701     0.67868522     1.5717622      188.36746      107.59274      182.32699      206.19341     -50.089143      76.748588      43.840631     -397.28602     -89.343977      3695216.1    
   1287000   299.84158      0.89376865     0.67850493     1.5722736      188.44056      107.61704      182.282        118.57968      63.771738      96.494984      22.783774     -281.65253     -114.06126      3696572.4    
   1288000   300.18973      0.89480642     0.67582209     1.5706285      188.26183      107.60366      182.28858      136.92656     -39.932158      94.296018     -264.91467     -472.49878     -69.858098      3692740.4    
   1289000   300.28206      0.89508162     0.67789769     1.5729793      188.40293      107.63304      182.36234     -283.29272     -115.39962      67.783624      96.517295     -241.87906      2.4213393      3698013      
   1290000   300.72277      0.89639528     0.67616631     1.5725616      188.38485      107.61187      182.32265      151.18016     -159.47768      102.55135      32.638081     -433.86437     -121.91525      3696126.1    
   1291000   299.72843      0.89343137     0.67724547     1.5706768      188.39327      107.58966      182.18301     -29.723268      175.67593      162.90055     -87.263421     -457.46228     -89.023359      3692697.7    
   1292000   300.42338      0.89550288     0.68053485     1.5760377      188.39485      107.60229      182.33003     -92.055509      132.45008      57.35504       33.64728      -220.7769      -85.155988      3696142.8    
   1293000   300.23846      0.89495166     0.6767385      1.5716902      188.38375      107.58592      182.37611      107.85122     -154.92823     -219.80302     -64.015348     -241.47879      7.871676       3696296.7    
   1294000   300.33736      0.89524648     0.67956678     1.5748133      188.38965      107.60693      182.38873     -180.27274     -28.908536      100.73486     -44.679676     -318.83902     -85.786059      3697390.2    
   1295000   299.78428      0.89359784     0.6786888      1.5722866      188.3168       107.61377      182.43942      18.773084     -154.23577     -235.06813     -165.97255     -419.56356     -143.53091      3697222.7    
   1296000   300.41         0.89546299     0.67818395     1.5736469      188.39792      107.63741      182.31641     -290.07883     -215.55514     -16.171698      130.38426     -409.83181     -84.268905      3697133.4    
   1297000   300.0934       0.89451926     0.6805355      1.5750548      188.44077      107.59635      182.22909     -86.960618     -34.688694      116.38819      29.232457     -386.73789     -161.66232      3694792.9    
   1298000   299.00915      0.89128734     0.67865125     1.5699386      188.36833      107.60493      182.41876     -152.97009      98.334362     -107.03196      97.76851      -252.11785     -131.07871      3697511.7    
   1299000   299.92064      0.89400432     0.67920301     1.5732073      188.39028      107.58774      182.41592      33.000742     -153.70013      36.26828      -38.474945     -289.41707     -188.27008      3697294.2    
   1300000   300.26894      0.89504252     0.67883888     1.5738814      188.33157      107.60612      182.3208       98.105069      279.61512      145.64216     -231.00107     -380.34748     -87.56119       3694845.7    
   1301000   300.93398      0.89702488     0.67668676     1.5737116      188.39087      107.5732       182.32744      250.97567      80.619097      35.692436     -59.866428     -172.98689     -59.996286      3695013.1    
   1302000   299.58526      0.8930046      0.67910186     1.5721065      188.42822      107.62156      182.43388     -282.9327      -104.49262      26.314557      27.729124     -250.67493     -76.237661      3699565.5    
   1303000   299.17048      0.89176823     0.67866164     1.5704299      188.29955      107.5834       182.4287       191.13556      204.51722     -133.21356      140.24086     -253.73907     -197.55398      3695623.1    
   1304000   299.25252      0.89201277     0.67713544     1.5691482      188.41816      107.6297       182.3344      -8.6768954      128.69888     -46.708121     -28.910895     -205.05452     -99.819948      3697630.4    
   1305000   300.07126      0.89445328     0.6774423      1.5718956      188.33938      107.66076      182.3118       34.475477     -62.988558     -38.748346     -2.6636182     -369.55355     -183.30362      3696692.6    
   1306000   299.91036      0.89397366     0.67838338     1.572357       188.31092      107.60122      182.31064      283.92465      158.83573      125.50091     -23.852168     -253.92937     -202.69436      3694066.6    
   1307000   299.68205      0.8932931      0.6784403      1.5717334      188.27786      107.66134      182.36788     -29.12899       7.4136322     -80.863905     -50.606124     -313.87377     -116.90602      3696641.7    
   1308000   300.01247      0.89427804     0.6779096      1.5721876      188.38207      107.63551      182.35074      38.222261      149.29091      194.4113       8.4509894     -340.04824     -76.583435      3697453.2    
   1309000   300.2932       0.89511483     0.67871463     1.5738295      188.44095      107.63718      182.30328     -382.62554     -161.91469      137.29175     -20.526774     -210.07401     -206.92505      3697703.5    
   1310000   300.02158      0.89430519     0.67683395     1.5711391      188.34488      107.61012      182.31833     -73.794498     -258.3701      -35.090763     -255.56598     -197.89354     -67.996355      3695194.1    
   1311000   299.68122      0.89329065     0.6766968      1.5699875      188.33652      107.65451      182.24958      132.70038      218.91456      1.3726497      75.132523     -96.605701     -91.72852       3695160.7    
   1312000   300.01626      0.89428931     0.67821626     1.5725056      188.44689      107.62057      182.34907      100.17098      386.75592      53.360517      119.82999     -386.15086     -62.502002      3698177.9    
   1313000   300.2883       0.89510022     0.67852525     1.5736255      188.40338      107.65896      182.42781     -193.07804     -576.00504     -127.87176     -13.490392     -332.71366     -46.299267      3700240.4    
   1314000   300.34164      0.89525922     0.67688033     1.5721395      188.4156       107.595        182.32402      163.41867     -251.30657      49.744406     -13.347055     -341.17772      37.418616      3696177.7    
   1315000   300.59799      0.89602335     0.67945453     1.5754779      188.44339      107.59293      182.28395     -176.83783      324.2223       122.74198      58.349339     -431.40482     -127.37099      3695839.1    
   1316000   300.41771      0.89548598     0.68155618     1.5770422      188.53873      107.57949      182.4236      -1.6860568     -320.85615      201.64141     -60.801873     -363.40483     -43.832629      3700079.9    
   1317000   299.66909      0.89325447     0.6786977      1.5719522      188.36934      107.62743      182.38167      100.57234      219.696       -92.888964     -9.3240551     -259.36135      13.152562      3697552.9    
   1318000   299.98679      0.89420149     0.67728717     1.5714887      188.40103      107.61858      182.32011      149.92778     -12.176013      100.66196      120.37662     -141.21721     -26.890872      3696622.4    
   1319000   300.33328      0.89523429     0.67852362     1.5737579      188.45854      107.63894      182.24237      21.305652     -274.95491      8.8936943     -24.873264     -181.61517      21.482691      3696873.4    
   1320000   299.51529      0.89279602     0.67597962     1.5687756      188.50252      107.65561      182.16848      87.947678     -175.38832     -15.396016     -20.099535     -135.01883     -82.409492      3696809.4    
   1321000   299.95466      0.89410571     0.67800382     1.5721095      188.42487      107.60194      182.37444     -204.04297     -129.05575     -138.97236      229.92214     -237.52118     -143.00783      3697620      
   1322000   300.02091      0.89430317     0.67734547     1.5716486      188.44348      107.65635      182.33119     -252.62245      143.36013      176.03892     -124.45927     -227.03533      26.56491       3698978.1    
   1323000   300.36126      0.8953177      0.67935182     1.5746695      188.44677      107.62393      182.32903     -42.660084     -227.87242     -56.656587     -206.8929      -302.42667     -287.24972      3697884.6    
   1324000   300.28925      0.89510307     0.67994656     1.5750496      188.3502       107.62001      182.24717      141.56881     -178.9983       6.5875915      142.36303     -352.49713     -270.88537      3694195.8    
   1325000   300.06423      0.8944323      0.67723756     1.5716699      188.40153      107.63773      182.19613     -139.52777     -86.315904     -37.277109     -71.566502     -350.90663     -86.678979      3694775.9    
   1326000   299.7326       0.89344379     0.67575276     1.5691965      188.457        107.57762      182.31643      55.794374      164.32616      159.85606      82.159733     -173.23894     -19.731502      3696238.9    
   1327000   299.83779      0.89375735     0.67712259     1.5708799      188.51363      107.53349      182.22081     -89.712293     -104.34632     -42.410605     -105.44476     -184.39943     -64.529993      3693894.6    
   1328000   300.1517       0.89469306     0.67822288     1.5729159      188.42552      107.61094      182.2427      -92.184846     -62.139464      46.040055     -34.190498     -188.73405     -153.14139      3695271.1    
   1329000   300.02344      0.89431072     0.6770107      1.5713214      188.41839      107.5751       182.16982     -58.47311      -25.044578     -105.54983     -45.17672      -253.30293     -75.297973      3692423.2    
   1330000   300.02702      0.8943214      0.67826127     1.5725827      188.35733      107.57057      182.24416      247.52802      297.23363      3.4601224     -40.176846     -238.99028      151.94409      3692577.5    
   1331000   299.54912      0.89289688     0.67662246     1.5695193      188.46122      107.6082       182.19007     -208.42369      93.236705      4.8759603      132.07535     -322.87464      66.626675      3694809.4    
   1332000   299.8202       0.8937049      0.67953672     1.5732416      188.45868      107.59339      182.41054      13.071051     -137.89647     -158.34752      47.233787     -167.79687     -141.77734      3698721.9    
   1333000   299.5468       0.89288997     0.67758607     1.570476       188.51001      107.58269      182.29055      263.6486       159.95616      278.53245      78.292053     -257.35904     -82.055149      3696927.6    
   1334000   299.66325      0.89323708     0.67795841     1.5711955      188.46937      107.53354      182.22298      385.07221     -67.681438      5.2495514      12.719781     -268.75005     -19.165735      3693072.9    
   1335000   300.1974       0.89482926     0.67904781     1.5738771      188.41037      107.63617      182.23593     -262.34567     -380.76746     -136.41991     -66.045744     -284.56369     -152.45016      3695702.9    
   1336000   300.69668      0.89631753     0.67807748     1.574395       188.39463      107.61529      182.21055      192.32118     -146.5254      -182.89305     -174.57803     -135.06928     -38.53931       3694162.6    
   1337000   299.47166      0.89266599     0.67666716     1.5693332      188.34329      107.59836      182.22543      5.1330111      108.62462     -137.00055     -44.195737     -268.27839     -9.5672699      3692876.2    
   1338000   299.44458      0.89258527     0.67985653     1.5724418      188.45506      107.6077       182.26924     -4.6123716      64.360089     -113.43765      132.61898     -169.04335     -15.626377      3696277.2    
   1339000   300.73757      0.89643941     0.6790873      1.5755267      188.39764      107.6467       182.18433     -112.72073      338.94556     -58.635863      107.47758     -251.24762     -13.635752      3694768.2    
   1340000   300.09174      0.89451433     0.67584773     1.5703621      188.41417      107.61652      182.20708     -51.360861     -180.03863     -148.91022     -109.158       -188.90251     -22.777507      3694517.7    
   1341000   299.57243      0.89296636     0.67851008     1.5714764      188.48399      107.57548      182.26666     -76.895847     -100.85002      253.38105     -97.181926     -196.37718      11.27922       3695685.4    
   1342000   300.20788      0.89486051     0.67803701     1.5728975      188.5558       107.57133      182.30705     -114.84897      117.63205      11.113342      148.211       -76.445438     -102.77262      3697770.3    
   1343000   300.3643       0.89532677     0.67793447     1.5732612      188.45072      107.61123      182.25452      204.13233      126.88872     -128.56619      139.79323     -235.24954     -138.07242      3696014.7    
   1344000   299.78675      0.89360521     0.6773687      1.5709739      188.39465      107.59039      182.21291     -11.241727     -238.45258     -106.74927      220.00234     -403.4735      -20.770074      3693356.3    
   1345000   299.7971       0.89363604     0.67589902     1.5695351      188.40752      107.60244      182.20881     -242.95241     -248.61557      79.167909     -86.731661     -236.21677      21.342173      3693939.2    
   1346000   300.09779      0.89453234     0.67847823     1.5730106      188.47306      107.61429      182.15109      110.91592     -310.8569       121.4565       142.63993     -200.20125      8.9320607      3694460.2    
   1347000   299.54858      0.89289527     0.67738239     1.5702777      188.48592      107.627        182.28449      299.81188     -164.17773      25.027615      6.8657594     -218.39444     -58.919585      3697855.2    
   1348000   300.31515      0.89518025     0.67721958     1.5723998      188.45216      107.60809      182.15681     -74.332916     -309.42198     -64.085018      6.2359847     -348.855        73.198634      3693953.5    
   1349000   300.5168       0.89578134     0.67542076     1.5712021      188.44908      107.60371      182.19828     -275.54854     -198.27872      96.813336     -244.66801     -131.83013     -157.44007      3694584.1    
   1350000   299.62915      0.89313542     0.67874252     1.5718779      188.5308       107.63268      182.24244      24.197103     -34.254794      0.2810964     -150.72574     -107.31247      41.01703       3698077.3    
   1351000   299.85861      0.89381941     0.67727597     1.5710954      188.40343      107.60999      182.30099      90.822235      84.226913      31.091947      36.173374     -133.78174     -59.398627      3695986.8    
   1352000   299.83001      0.89373414     0.67625578     1.5699899      188.50171      107.61529      182.2431      -67.499458     -121.04708     -29.026509     -124.61205     -262.70137      15.785572      3696922.8    
   1353000   300.38805      0.89539756     0.67706562     1.5724632      188.47263      107.62385      182.19016     -304.0396      -19.854907     -123.94455      21.820062     -163.21448     -86.426443      3695572.3    
   1354000   299.75965      0.89352443     0.6773244      1.5708488      188.40543      107.57962      182.12444     -224.03739     -329.22083      118.99044     -89.921821     -263.31312      44.335667      3691404.7    
   1355000   299.90791      0.89396637     0.67618379     1.5701502      188.48468      107.60658      182.22869      83.047383      473.37129      53.323911     -215.2776      -105.69807     -117.12004      3695997.1    
   1356000   299.94192      0.89406773     0.67755108     1.5716188      188.50999      107.60359      182.17203     -72.154833      383.99378     -44.6984        21.33835      -281.98847     -98.479757      3695241.6    
   1357000   300.23133      0.89493042     0.6760461      1.5709765      188.41356      107.61774      182.1393      -18.003281     -87.302881      99.479717     -66.429069     -295.9322      -13.527573      3693173.4    
   1358000   300.33764      0.89524731     0.67693218     1.5721795      188.53465      107.58047      182.1278      -54.026517     -71.316487     -87.022439      18.029379     -277.38111     -73.535818      3694033.8    
   1359000   300.35369      0.89529514     0.67716566     1.5724608      188.43749      107.57781      182.15075     -197.11316      331.01595      127.80115     -50.244362     -235.07578      33.752082      3692503.8    
   1360000   299.95636      0.89411078     0.67980325     1.573914       188.53181      107.58804      182.2099       11.261431      61.648923      50.835443     -108.024       -162.11269     -39.444913      3695903.4    
   1361000   299.48405      0.89270291     0.67723227     1.5699352      188.48343      107.59753      182.2383      -83.188967      46.723418     -108.16034      64.862228     -76.616646     -60.619434      3695856.8    
   1362000   299.7973       0.89363665     0.6780428      1.5716795      188.3694       107.59049      182.19535      163.7569       358.79874     -71.354125      76.021557     -229.42089     -54.816108      3692508.7    
   1363000   299.90813      0.89396701     0.67385017     1.5678172      188.46359      107.56657      182.1723       206.43586      217.0233      -9.5581979      155.28445     -38.874572      53.224669      3693066.6    
   1364000   299.95009      0.89409208     0.67810575     1.5721978      188.49959      107.56385      182.26634      25.509942     -32.752115      108.4182       71.328097     -312.31245     -93.918555      3695585.2    
   1365000   299.99867      0.89423689     0.67781364     1.5720505      188.4098       107.58902      182.25858     -73.960761     -181.95057      197.73993     -85.957573     -21.481508      68.102364      3694532      
   1366000   299.65969      0.89322645     0.67946076     1.5726872      188.50908      107.55185      182.1506       0.17627566     45.493769     -151.19488      115.38695     -153.42562     -14.002709      3693012.4    
   1367000   300.60406      0.89604145     0.67617533     1.5722168      188.47066      107.58416      182.17593     -82.286351      253.96849      21.329245      142.17166     -169.68907     -127.28556      3693882.8    
   1368000   299.90503      0.89395777     0.67447828     1.5684361      188.44244      107.62844      182.15313     -24.749158     -79.009593      35.130144     -4.2206307     -259.07198      56.650169      3694387.1    
   1369000   299.98017      0.89418175     0.67692062     1.5711024      188.34814      107.57811      182.15346      32.298211     -70.082999     -166.59444     -32.102118     -294.20385     -13.087947      3690818.4    
   1370000   299.88803      0.89390709     0.67700255     1.5709096      188.49751      107.60508      182.19291      13.912952      100.53621      106.33621      72.417244     -253.83213     -48.613389      3695471.7    
   1371000   300.4606       0.89561382     0.67691873     1.5725325      188.45391      107.57337      182.21589      176.38442      161.89622      56.541792     -105.9813      -215.92128     -53.289789      3693993.8    
   1372000   300.20691      0.89485762     0.67666172     1.5715193      188.44815      107.57538      182.16895      36.351917     -238.19031     -22.510508      6.3485508     -206.87908     -73.939603      3692998.2    
   1373000   300.32242      0.89520192     0.67813757     1.5733395      188.47451      107.56341      182.27592     -101.39649      431.83155     -78.545409      22.842979     -199.61654     -9.510008       3695272.9    
   1374000   299.87878      0.89387951     0.67841727     1.5722968      188.42626      107.60978      182.07455      69.300025     -271.76775      22.069722     -156.98258     -265.13688     -21.416996      3691836.3    
   1375000   299.76826      0.89355008     0.67763155     1.5711816      188.48802      107.59691      182.0503      -461.94633     -222.72937      98.381902      148.45842     -242.64148      53.818751      3692112.7    
   1376000   299.61245      0.89308564     0.67859406     1.5716797      188.41681      107.58239      182.20065      334.28624      338.46729      91.752686     -146.42841     -220.76224     -151.17403      3693267.6    
   1377000   300.4031       0.89544243     0.67596579     1.5714082      188.49469      107.61535      182.2137       296.78087      15.34695       296.21412      47.579674     -155.15884     -208.36743      3696190.6    
   1378000   299.8852       0.89389866     0.67892123     1.5728199      188.53469      107.62723      182.18345     -234.78209     -332.90729      183.02743     -189.82518     -149.43727      64.270644      3696769.5    
   1379000   300.1092       0.89456636     0.67870112     1.5732675      188.51106      107.58403      182.29888     -193.35959      108.64682     -100.24419      264.4091      -289.30387     -74.959865      3697163.4    
   1380000   299.5988       0.89304496     0.67759413     1.5706391      188.39239      107.65745      182.13441      197.13845     -13.537913      230.1382       19.348943     -381.25868     -9.7605469      3694021.8    
   1381000   300.11525      0.89458439     0.6804582      1.5750426      188.52566      107.63277      182.08988      147.53826     -470.96219      154.34638      206.32489     -374.81087      55.232836      3694883.8    
   1382000   300.17356      0.89475821     0.67679414     1.5715524      188.48334      107.59084      182.22314     -53.637923     -114.42006      59.961648      89.860984     -313.19309      67.784948      3695317.9    
   1383000   300.24742      0.89497836     0.6763076      1.571286       188.50808      107.58783      182.10073     -212.25415     -38.292621     -127.42368     -73.830631     -254.68919     -234.14253      3693216.6    
   1384000   299.37704      0.89238394     0.67360202     1.565986       188.39598      107.60442      182.07437      260.03107      286.30104      202.12904      258.06053     -357.40126     -157.17969      3691055.5    
   1385000   299.82431      0.89371716     0.67632839     1.5700455      188.40972      107.56924      182.23969      20.504718      111.93541      64.164683     -115.33754     -150.38956     -19.161984      3693468.1    
   1386000   299.67396      0.89326899     0.67500169     1.5682707      188.48258      107.604        182.12397      211.60712      137.13085      63.174619      27.034968     -222.06145     -16.676329      3693743.4    
   1387000   299.9427       0.89407007     0.67644935     1.5705194      188.49961      107.63019      182.06774      134.40327      167.39895      171.32881     -155.70734     -127.68115     -183.87047      3693835.5    
   1388000   300.08882      0.89450563     0.6763692      1.5708748      188.37922      107.59049      182.21417      113.20209     -145.39392      35.7612        54.601858     -189.21996     -33.165942      3693082.8    
   1389000   299.61594      0.89309606     0.67525394     1.56835        188.43229      107.58834      182.25444     -97.402311      80.678131      71.044118     -212.52317     -260.03767     -27.868995      3694865.8    
   1390000   299.93265      0.8940401      0.67670146     1.5707416      188.4281       107.61819      182.20969     -38.384302     -264.78585      78.752773     -145.81481     -277.87223     -60.321553      3694901.1    
   1391000   300.20516      0.89485239     0.67829573     1.5731481      188.45235      107.60669      182.06504      63.240627      16.786344     -68.659289      71.998293     -236.14097      52.304897      3692048.4    
   1392000   300.17988      0.89477706     0.67624676     1.5710238      188.39682      107.5708       182.14684     -58.95637       66.189881      32.532049     -240.28        -279.96649     -99.989285      3691387.2    
   1393000   299.61266      0.89308629     0.67534374     1.56843        188.42805      107.60295      182.10247      125.87902      156.0259      -129.64249      29.707388     -338.57316      14.118053      3692203      
   1394000   299.62517      0.89312356     0.67795033     1.5710739      188.51778      107.56252      182.28593      157.85261      189.9473      -164.35153      15.60445      -170.21552      24.007716      3696293.6    
   1395000   300.44125      0.89555614     0.67817506     1.5737312      188.51641      107.59623      182.27479      215.8          8.2069797     -32.661837     -221.8294      -173.57456      81.515125      3697198.7    
   1396000   299.87305      0.89386246     0.678252       1.5721145      188.42713      107.59436      182.11217     -148.40802      96.368758      19.702742      331.41053     -285.75756      0.94916485     3692086.8    
   1397000   299.90516      0.89395815     0.67661301     1.5705712      188.39162      107.60137      182.13715      208.4114      -110.93131      39.243713      22.502499     -214.301       -171.05112      3692137.8    
   1398000   299.70826      0.89337124     0.67598909     1.5693603      188.52717      107.57526      182.2195      -237.24213     -95.532096      39.045827     -6.6471498     -327.14227     -8.8947372      3695568.1    
   1399000   300.4182       0.89548743     0.67781047     1.5732979      188.47245      107.60253      182.21358      11.243359     -60.652505      94.602233      55.89474      -237.89799      30.201576      3695311.7    
   1400000   299.96234      0.8941286      0.67877703     1.5729056      188.40874      107.54931      182.16145      150.51717     -172.98855      123.55684      38.242503     -196.01003     -8.1794768      3691179.4    
   1401000   299.89962      0.89394163     0.67601741     1.569959       188.5379       107.53883      182.10499      102.29684      340.98705      100.89929      33.237819     -254.18203     -122.58716      3692205.2    
   1402000   299.96785      0.89414501     0.67501136     1.5691564      188.41521      107.6012       182.22353     -303.34133     -217.10343      146.72284      108.17681     -301.09917      10.587559      3694345.5    
   1403000   299.78112      0.89358841     0.67813414     1.5717226      188.34218      107.66975      182.24807      10.434656     -260.09081     -18.143501      131.68594     -147.47313     -94.216431      3695763.9    
   1404000   299.90321      0.89395235     0.67440719     1.5683595      188.38071      107.58907      182.13553      288.51368      363.8532       51.924728      65.509207     -273.86631     -206.42263      3691469.1    
   1405000   300.54562      0.89586726     0.6769676      1.5728349      188.39559      107.57032      182.25655     -133.7911       93.333797     -116.00148      223.1919      -267.81757     -63.821289      3693570.1    
   1406000   299.64071      0.89316987     0.67891929     1.5720892      188.46472      107.59291      182.19088      53.912672      102.17567      71.131168      76.69018      -204.24042     -97.853978      3694369.7    
   1407000   300.52651      0.89581028     0.678242       1.5740523      188.45116      107.58454      182.18977      286.37084      649.2022       21.896243     -25.571986     -247.82803     -23.576203      3693794      
   1408000   300.29586      0.89512277     0.67616957     1.5712923      188.56076      107.63572      182.2106      -172.56939     -247.82863      58.71909      -77.377045     -236.52677      29.587519      3698122.9    
   1409000   300.4232       0.89550234     0.6768211      1.5723234      188.33533      107.5917       182.16285      234.96747      193.56802      86.283857      77.432079     -192.20124      181.73689      3691223.6    
   1410000   300.11526      0.89458442     0.67556377     1.5701482      188.38084      107.58462      182.05926      45.8235        232.50447      99.185118      111.45442     -224.69759      118.79614      3689773.3    
   1411000   300.29817      0.89512963     0.67453384     1.5696635      188.46327      107.61141      182.1836       133.26777     -200.01397     -57.309156     -21.254204     -250.68972     -163.54895      3694828.9    
   1412000   299.89091      0.89391568     0.67786281     1.5717785      188.41163      107.60726      182.22795     -281.86388      19.126835     -107.12662      104.4651      -137.86791     -22.796763      3694573.2    
   1413000   300.09214      0.89451552     0.67605434     1.5705699      188.3711       107.59597      182.18337      264.85396      167.81537     -79.170833     -31.592529     -315.10121     -61.501343      3692487.3    
   1414000   299.616        0.89309622     0.67735332     1.5704495      188.51931      107.58537      182.22079     -121.82298      24.788605      70.259424      130.53002     -297.53769     -47.849933      3695787.3    
   1415000   300.10205      0.89454505     0.67733732     1.5718824      188.39753      107.6025       182.19932     -83.81087       46.821099      125.29367      58.335369     -286.59001      59.012492      3693553      
   1416000   300.13817      0.89465271     0.67684651     1.5714992      188.48433      107.62519      182.17389      47.290292     -164.42124      113.27478     -199.45995     -315.09544     -57.697305      3695518.2    
   1417000   300.1098       0.89456816     0.67510992     1.5696781      188.39279      107.61996      182.15656      295.33105     -355.16703     -13.544008      46.348882     -310.35151      16.977555      3693192.3    
   1418000   299.62071      0.89311027     0.67729811     1.5704084      188.41985      107.59777      182.23541      221.69055      240.26435     -57.222538      84.179574     -276.94759     -106.81643      3694559.7    
   1419000   299.68707      0.89330808     0.6778873      1.5711954      188.34227      107.6471       182.17663     -282.3876      -101.12633     -156.09509      58.708542     -169.12829      59.842692      3693540.1    
   1420000   299.9747       0.89416546     0.67847876     1.5726442      188.45027      107.68554      182.20906     -111.75632     -115.45905      112.91394      75.218806     -95.487682     -89.698175      3697635.9    
   1421000   300.00593      0.89425852     0.67887115     1.5731297      188.46019      107.61935      182.25993     -9.146032      -364.5369      -185.73561      177.0361      -185.39032      31.383797      3696589.3    
   1422000   300.71205      0.89636334     0.67766592     1.5740293      188.45989      107.57047      182.1646       224.33096     -50.752634      167.11816      23.684625     -469.47551      50.402451      3692971.6    
   1423000   300.02766      0.89432331     0.67892509     1.5732484      188.4325       107.60507      182.183        142.10178      198.25214      116.24688      266.19859     -318.5784      -15.322435      3693995.7    
   1424000   299.82672      0.89372435     0.67612954     1.5698539      188.43724      107.59299      182.20603     -7.9366048     -229.9438      -2.9686988      55.348715     -366.27979     -92.352114      3694140.7    
   1425000   300.35101      0.89528716     0.67511407     1.5704012      188.35907      107.64134      182.17537     -281.03052     -111.24651      27.117233     -61.322595     -215.43276     -52.064883      3693646.3    
   1426000   300.28746      0.89509772     0.676281       1.5713787      188.41667      107.59555      182.24059     -49.013924      31.350833      44.525682      115.87137     -166.57413     -21.500264      3694526      
   1427000   299.78004      0.89358519     0.67710171     1.5706869      188.45053      107.58554      182.21372     -111.45088     -154.73509     -144.07075     -75.888434     -150.98948     -159.74699      3694301.7    
   1428000   299.86038      0.89382467     0.67881974     1.5726444      188.49984      107.59953      182.21278      49.323902     -242.83573     -31.428916      59.932979     -340.62169     -307.56985      3695729.8    
   1429000   300.37358      0.89535444     0.67705807     1.5724125      188.408        107.6351       182.26041     -401.40128     -60.661845     -121.22531     -170.63901     -228.96805     -47.134057      3696116.1    
   1430000   299.57724      0.89298069     0.67911042     1.5720911      188.46998      107.59076      182.27547      14.310497      37.352683     -75.297952      74.285823     -232.33905      66.331234      3696114      
   1431000   299.95072      0.89409398     0.67781331     1.5719073      188.42398      107.61237      182.24374      163.06366      31.842099     -118.43238      135.02351     -253.41718     -121.02439      3695310.8    
   1432000   299.82593      0.89372199     0.67603244     1.5697544      188.38773      107.61367      182.25997      145.24905      78.578935     -92.388732     -306.92402     -367.2381       22.549942      3694973.9    
   1433000   301.06404      0.89741256     0.67911427     1.5765268      188.45065      107.61882      182.16888     -46.747077     -155.32736     -78.729514      76.629781     -318.85613     -153.44083      3694537.4    
   1434000   299.98492      0.89419589     0.68078424     1.5749801      188.53874      107.62318      182.31597     -33.987258     -110.26984      43.54878       67.251045     -139.17536     -187.49348      3699398.7    
   1435000   299.78024      0.8935858      0.67768429     1.5712701      188.54354      107.60331      182.29473     -242.85027     -5.257341      -53.641003      130.79759     -198.25608     -96.698414      3698379      
   1436000   300.398        0.89542721     0.67794216     1.5733694      188.50363      107.59609      182.2399       92.499947      446.75241     -83.710837     -202.05694     -195.57552      10.119583      3696235.6    
   1437000   300.03079      0.89433264     0.6760488      1.5703814      188.40807      107.56925      182.15809     -178.05747     -95.425554      41.145068      4.5425107     -286.93152      34.483355      3691782.6    
   1438000   299.66551      0.89324382     0.67630471     1.5695485      188.30823      107.60893      182.31963     -38.482139      99.590819      114.2268      -374.36717     -257.07577      50.156927      3694460.6    
   1439000   300.34246      0.89526165     0.6753931      1.5706548      188.39949      107.63422      182.19837      107.72798     -70.261487     -377.31845      169.79544     -207.91413     -105.74394      3694660.7    
   1440000   299.61237      0.89308541     0.67757012     1.5706555      188.34051      107.60328      182.21076      259.43737      82.973821      158.57491      10.019001     -347.50211     -162.18847      3692693.6    
   1441000   300.04601      0.89437801     0.67707021     1.5714482      188.40811      107.65407      182.27106      262.82936     -51.652719      35.146718      217.82351     -269.9468      -158.81402      3696985.5    
   1442000   300.14387      0.8946697      0.67691769     1.5715874      188.40061      107.58382      182.24335      209.58343      20.880257      79.464356      88.746759     -324.52256     -157.34551      3693864.6    
   1443000   300.4809       0.89567432     0.67920486     1.5748792      188.46921      107.57845      182.17148     -96.5126       -123.36463      137.51458     -194.73331     -239.84718     -122.00516      3693567.8    
   1444000   299.427        0.89253287     0.67970961     1.5722425      188.44718      107.62386      182.08471     -74.394173     -25.502157      59.074354     -25.893851     -398.06399      21.321109      3692935.3    
   1445000   299.43679      0.89256205     0.67812251     1.5706846      188.45046      107.65731      182.27294     -198.73094     -83.212262     -160.52949     -15.262477     -315.33835     -11.366002      3697965.8    
   1446000   299.8335       0.89374457     0.67792714     1.5716717      188.41132      107.6144       182.22727      229.32864      57.13517       320.3791       57.937281     -436.09811     -84.116952      3694798.6    
   1447000   300.6078       0.8960526      0.67644909     1.5725017      188.35743      107.57898      182.24379      339.34706     -81.837617     -259.77036      228.21568     -166.95135      68.963755      3692860.4    
   1448000   299.93499      0.89404708     0.67582599     1.5698731      188.36097      107.64925      182.12011      186.97405     -76.034277     -21.990062      131.51716     -353.08887     -124.74069      3692834.4    
   1449000   300.28216      0.89508191     0.67714902     1.5722309      188.46072      107.61571      182.13895     -194.75003     -260.88963      219.37584     -202.13959     -147.07228      39.59461       3694020.9    
   1450000   299.69145      0.89332113     0.67769167     1.5710128      188.45245      107.60448      182.14246     -460.75857     -155.06673     -135.75961      23.236155     -299.19366     -32.792172      3693544.6    
   1451000   299.57793      0.89298276     0.67673079     1.5697135      188.28879      107.63825      182.20515      319.74055      45.542964      9.0533582      42.241871     -268.06656     -62.920765      3692765.7    
   1452000   299.52907      0.89283711     0.67867775     1.5715149      188.43504      107.64922      182.22939     -146.07938      79.758289      39.146444      150.72514     -203.36136      81.141233      3696502.4    
   1453000   300.24934      0.8949841      0.67733968     1.5723238      188.38801      107.63541      182.25253     -66.069811     -86.973735     -13.910365     -1.0775748     -340.83446     -10.465917      3695574.6    
   1454000   299.81743      0.89369665     0.67802631     1.571723       188.4695       107.64563      182.20916      240.03508     -28.994659     -238.13516     -208.64818     -155.30917     -69.36783       3696644.3    
   1455000   299.75804      0.89351962     0.67986965     1.5733893      188.44513      107.61245      182.2819       146.55137      49.06103       154.08727     -31.438205     -204.73578      69.628366      3696502.3    
   1456000   300.15515      0.89470333     0.67937319     1.5740765      188.35347      107.5864       182.27145     -68.209977      302.06253      39.089348     -20.344431     -257.06196     -55.825996      3693598.3    
   1457000   300.19429      0.89482001     0.67628011     1.5711001      188.47226      107.58707      182.29599     -526.51706     -61.789004      106.26183     -175.54453     -185.39346     -36.301388      3696448.2    
   1458000   299.49304      0.89272972     0.67677733     1.5695071      188.41514      107.61207      182.19744     -316.1279       4.8289328     -236.97482      0.90422357    -414.64497     -62.953993      3694188.6    
   1459000   300.01297      0.89427953     0.67988461     1.5741641      188.32481      107.61136      182.31285      134.14477     -174.08931     -269.32196      30.530071     -386.46681     -98.356798      3694732.1    
   1460000   300.04556      0.89437666     0.67821614     1.5725928      188.36145      107.57016      182.24779      250.11411     -54.470473     -114.85325     -47.323512     -277.32597     -174.45114      3692717.7    
   1461000   300.03254      0.89433784     0.67753327     1.5718711      188.45442      107.64839      182.28202      171.63066     -267.99048      90.379989      67.124503     -329.66404     -56.28747       3697921.9    
   1462000   299.9353       0.89404801     0.67844345     1.5724915      188.45099      107.63344      182.19974     -61.086938      40.035713     -143.50594      65.107055     -209.89357     -141.00422      3695671.9    
   1463000   300.16184      0.89472328     0.67752202     1.5722453      188.4585       107.59855      182.26965      135.26266      189.19249      303.56557      73.739963     -339.70149     -124.20938      3696038.7    
   1464000   299.79919      0.89364228     0.67644086     1.5700831      188.38076      107.60042      182.29724      189.76145     -138.44743      70.693414      72.114721     -245.84844     -78.746521      3695137.7    
   1465000   299.35114      0.89230675     0.67875632     1.5710631      188.53818      107.5736       182.21284     -241.35416      248.43559     -113.55037     -74.776387     -421.44518     -77.302952      3695591.7    
   1466000   300.13903      0.89465529     0.67880903     1.5734643      188.41942      107.57014      182.20424      80.954156      94.165581     -84.921724      51.809281     -216.07043     -61.508628      3692970.7    
   1467000   300.11769      0.89459166     0.67855439     1.5731461      188.43679      107.62144      182.31795     -9.5926493      236.23426     -125.24205      9.6517365     -267.59415     -80.481003      3697378.8    
   1468000   300.33674      0.89524462     0.67482826     1.5700729      188.30807      107.5738       182.2832       87.59653       152.85188      75.451932     -101.93609     -338.75105     -9.3118301      3692513.5    
   1469000   299.6422       0.89317432     0.67802175     1.5711961      188.38365      107.5946       182.31092     -70.832424      79.527733     -13.932365      28.596701     -226.1636      -88.98573       3695271.5    
   1470000   299.72292      0.89341495     0.67682975     1.5702447      188.40443      107.61455      182.23771      16.496123     -139.97694      127.93514     -160.60883     -173.30998     -15.296379      3694880.2    
   1471000   299.85313      0.89380307     0.6762047      1.5700078      188.48236      107.62005      182.07404      153.72768     -84.996619      327.46788      97.672961     -415.5903       71.846031      3693277.3    
   1472000   300.05228      0.89439669     0.67611501     1.5705117      188.30618      107.62859      182.26286     -294.91731      123.46755      75.964828     -18.649507     -327.07392     -109.52098      3693944.7    
   1473000   300.34154      0.89525893     0.67712799     1.5723869      188.32923      107.65533      182.27796      10.351833     -10.319295     -83.756198      81.456992     -403.24231      68.775409      3695621.2    
   1474000   300.34043      0.89525561     0.67734714     1.5726027      188.461        107.57877      182.15554     -326.20664     -219.42995      47.649644      24.159286     -191.47752      13.463815      3693094.9    
   1475000   299.27943      0.89209299     0.67560973     1.5677027      188.42554      107.58338      182.14855     -1.8602125     -19.630944     -80.81799      -212.87611     -254.97774     -37.314456      3692416.4    
   1476000   300.34055      0.89525597     0.67887341     1.5741294      188.39977      107.63058      182.31747     -90.382711     -33.00221      -127.72009     -38.038075     -325.64853     -47.549354      3696956.5    
   1477000   299.74879      0.89349206     0.67637848     1.5698705      188.38449      107.59133      182.21973      295.35599     -325.68109      137.25163     -164.76714     -388.85811     -0.60069263     3693327.4    
   1478000   300.36534      0.89532987     0.67889445     1.5742243      188.39834      107.57213      182.22768     -183.79527     -23.535738      73.692112     -22.968516     -276.55599      114.73824      3693100.9    
   1479000   299.81103      0.89367758     0.67686357     1.5705412      188.29683      107.57182      182.17813     -3.1613155      353.47295      29.056355      20.143893     -237.10079     -51.354756      3690096.7    
   1480000   299.67997      0.89328691     0.67731406     1.570601       188.3546       107.59415      182.23949      216.23688      71.192469      146.89338     -69.998101     -212.86824     -153.2781       3693238.7    
   1481000   300.84061      0.89674655     0.67997046     1.576717       188.37278      107.63168      182.33212      202.9746       175.69033      61.838403      18.671226     -263.13936     -124.04948      3696761.8    
   1482000   299.92277      0.89401065     0.67673187     1.5707425      188.44037      107.66524      182.27998     -76.00019      -70.711438     -175.1811      -168.83732     -364.34293     -49.286619      3698183.5    
   1483000   300.05388      0.89440147     0.67816702     1.5725685      188.37009      107.61348      182.22874      17.565309     -174.24008      74.78187      -79.012078     -288.45362      6.234564       3693988.2    
   1484000   299.80373      0.89365583     0.67910422     1.57276        188.40152      107.62678      182.30945      327.53348      143.32697      38.342548     -23.40846      -249.77725     -128.4491       3696697.5    
   1485000   300.5954       0.89601563     0.6770011      1.5730167      188.40246      107.6654       182.13252      323.77856      156.38256     -46.361071     -393.1682      -320.87434     -141.61813      3694453.6    
   1486000   300.3121       0.89517118     0.67956091     1.5747321      188.44481      107.65122      182.27504     -86.867125     -95.002421      14.167624     -24.835452     -160.72955     -1.132175       3697688.6    
   1487000   300.65659      0.89619803     0.67691763     1.5731157      188.41436      107.63126      182.25574      94.079145     -31.923077     -57.48355       180.80308     -274.57879     -36.023342      3696014.3    
   1488000   300.08324      0.89448898     0.67782404     1.572313       188.40225      107.6115       182.30629      380.01752      209.355       -57.597314      82.500435     -286.7771       81.054228      3696123      
   1489000   300.24034      0.89495726     0.67802628     1.5729835      188.35238      107.65948      182.2242      -67.051688      234.67817     -62.298276     -1.0114856     -385.46983     -9.0080619      3695127.6    
   1490000   300.15964      0.89471671     0.67910159     1.5738183      188.33067      107.63001      182.24975      133.6708       196.73804     -34.642309      117.75736     -191.20651     -108.96461      3694208.1    
   1491000   300.07953      0.89447793     0.67937564     1.5738536      188.31603      107.69252      182.27778      533.32024     -25.80353      -76.932796      135.3362      -275.43038      11.455663      3696635      
   1492000   300.15707      0.89470906     0.67763633     1.5723454      188.35233      107.65542      182.26647     -198.89684     -166.89688     -198.37162     -60.849549     -324.64054      13.188138      3695844.4    
   1493000   299.87256      0.893861       0.6774715      1.5713325      188.39577      107.60492      182.24308     -27.690144     -1.5082245      88.532727      272.86806     -354.734       -15.08927       3694488.7    
   1494000   300.73843      0.89644196     0.67841272     1.5748547      188.46083      107.63836      182.2678       87.008715     -8.2815823     -1.127711      -38.571949     -265.19597      13.598101      3697414.2    
   1495000   300.53608      0.89583882     0.67918271     1.5750215      188.38395      107.6084       182.28096     -39.007315     -43.397016      51.537097      83.623893     -257.23434     -105.81478      3695144.1    
   1496000   299.89998      0.89394273     0.6792371      1.5731798      188.41393      107.59876      182.35886      48.041809      344.6237       151.3512      -30.04944      -382.87797      0.50778857     3696980.5    
   1497000   300.829        0.89671194     0.67614736     1.5728593      188.34197      107.62956      182.24807     -256.13351      128.70339      218.43429      107.29152     -263.5767      -33.108323      3694380.6    
   1498000   300.30788      0.89515858     0.67657735     1.5717359      188.36503      107.64227      182.30553     -85.715006     -111.98036      34.552622     -81.086305     -252.34743     -92.261332      3696433.8    
   1499000   300.07487      0.89446404     0.67517037     1.5696344      188.36093      107.59052      182.23562     -107.99075      299.05984      71.606186      147.81719     -384.04643     -59.008247      3693159.6    
   1500000   300.54783      0.89587383     0.67552762     1.5714014      188.31104      107.62626      182.18871      253.08756     -102.952        129.0338      -7.8522208     -441.68594     -55.981915      3692457.4    
Loop time of 23635.3 on 256 procs for 1500000 steps with 414720 atoms

Performance: 5.483 ns/day, 4.377 hours/ns, 63.464 timesteps/s, 26.320 Matom-step/s
99.4% CPU use with 256 MPI tasks x no OpenMP threads

MPI task timing breakdown:
Section |  min time  |  avg time  |  max time  |%varavg| %total
---------------------------------------------------------------
Pair    | 10262      | 10425      | 10662      |  68.6 | 44.11
Bond    | 456.65     | 464.52     | 480.61     |  17.9 |  1.97
Kspace  | 3255.7     | 3675.7     | 3886.9     | 212.2 | 15.55
Neigh   | 5115.2     | 5266.6     | 5380.5     | 111.3 | 22.28
Comm    | 2185.4     | 2548.5     | 3109.6     | 514.6 | 10.78
Output  | 1.63       | 4.6058     | 4.8875     |  11.9 |  0.02
Modify  | 927.99     | 1121.1     | 1262.1     | 286.5 |  4.74
Other   |            | 129.1      |            |       |  0.55

Nlocal:           1620 ave        1653 max        1592 min
Histogram: 2 5 28 54 70 53 35 5 3 1
Nghost:        8516.43 ave        8657 max        8381 min
Histogram: 5 15 26 45 48 33 36 29 13 6
Neighs:         383190 ave      392353 max      375439 min
Histogram: 6 13 33 40 59 50 37 8 7 3

Total # of neighbors = 98096518
Ave neighs/atom = 236.53674
Ave special neighs/atom = 9.4
Neighbor list builds = 206795
Dangerous builds = 35
unfix           3

#======================== unload
variable 	yz_new		equal	yz
variable	yz_nn		equal	${yz_new}
variable	yz_nn		equal	-6.3148844325923
variable	difference	equal	${yz_nn}-${yzzo}
variable	difference	equal	-6.3148844325923-${yzzo}
variable	difference	equal	-6.3148844325923--6.30576165965616
variable	ratio		equal	v_difference/v_yz_nn
variable	srate2		equal	v_ratio/${steps}
variable	srate2		equal	v_ratio/1500000
print "yz ${yz_nn}"
yz -6.3148844325923
print "strainrate ${srate2}"
strainrate 9.63097375575633e-10


#fix             4 all deform 1 yz erate -${srate2} units box remap x
fix             4 all deform 1 xz erate -${srate} units box remap x flip no
fix             4 all deform 1 xz erate -2e-07 units box remap x flip no
run             ${steps}
run             1500000
PPPM initialization ...
  using 12-bit tables for long-range coulomb (../kspace.cpp:342)
  G vector (1/distance) = 0.29202899
  grid = 32 32 60
  stencil order = 6
  estimated absolute RMS force accuracy = 3.3574649
  estimated relative force accuracy = 0.010110906
  using double precision KISS FFT
  3d grid and FFT values/proc = 2310 256
Generated 3 of 3 mixed pair_coeff terms from arithmetic mixing rule
Per MPI rank memory allocation (min/avg/max) = 18.58 | 18.59 | 18.6 Mbytes
   Step          Temp          KinEng         PotEng         TotEng           Lx             Ly             Lz            Pxx            Pyy            Pzz            Pxy            Pxz            Pyz           Volume    
   1500000   300.54783      0.89587383     0.67552764     1.5714015      188.31104      107.62626      182.18871      253.08247     -102.9514       129.03401     -7.8519537     -441.80205     -55.981913      3692457.4    
   1501000   299.45873      0.89262743     0.67802081     1.5706482      188.32011      107.64517      182.22653     -127.89008      87.281491      2.5892362      48.187444     -475.99563     -16.775931      3694050.8    
   1502000   300.18137      0.8947815      0.67865834     1.5734398      188.43113      107.59715      182.27219      18.099825     -235.07456      98.881122      94.644217     -310.79491     -47.721731      3695505.4    
   1503000   300.04481      0.89437444     0.67749063     1.5718651      188.29926      107.64649      182.33084      156.43489     -120.82476     -89.020679     -8.8853357     -366.16177     -143.15829      3695801.2    
   1504000   299.89652      0.89393241     0.67701141     1.5709438      188.38461      107.64495      182.25909     -57.657514      24.598147      23.861009     -25.487967     -398.86327      40.116928      3695968.5    
   1505000   300.65742      0.89620049     0.67664961     1.5728501      188.39976      107.61747      182.27981     -86.647474     -188.60357      53.472413     -153.13369     -244.9301      -173.61861      3695742.3    
   1506000   299.90486      0.89395725     0.67816006     1.5721173      188.41271      107.6119       182.2841      -126.81772     -44.175791      106.81455     -6.0937474     -362.06481      4.8331491      3695892.1    
   1507000   299.61444      0.89309158     0.67793873     1.5710303      188.39341      107.59492      182.27006      99.761806      78.654348     -5.4846371      158.23708     -359.18872     -99.802402      3694645.7    
   1508000   300.59271      0.89600761     0.6770886      1.5730962      188.44698      107.63573      182.33008     -243.80429     -497.84423     -43.77872       19.803423     -252.67147      54.035509      3698315.4    
   1509000   300.1353       0.89464416     0.678698       1.5733422      188.36655      107.62352      182.24474      160.77385      1.8222818     -132.06878      104.77589     -306.38753     -91.857621      3694587.4    
   1510000   299.9198       0.89400179     0.6759774      1.5699792      188.40428      107.6145       182.28316     -317.983        44.855854      118.40684     -123.72991     -259.41734     -81.621375      3695797      
   1511000   300.58436      0.89598273     0.67719582     1.5731785      188.35433      107.62199      182.19082      320.26532     -335.13009     -46.196313     -64.703571     -366.59327     -201.89229      3693202.7    
   1512000   300.64891      0.89617514     0.67806042     1.5742356      188.40634      107.62174      182.33569      78.531272      57.814271      22.278322      23.231208     -353.14108     -85.09869       3697151.3    
   1513000   300.14993      0.89468776     0.67799117     1.5726789      188.4173       107.63285      182.33668     -367.86617     -292.61824     -126.64192     -41.651956     -381.33764     -86.498407      3697768      
   1514000   300.37758      0.89536634     0.67884625     1.5742126      188.37053      107.64026      182.26614      38.195758      225.8785      -36.647866      16.827058     -388.02118     -47.822919      3695674.4    
   1515000   299.62986      0.89313755     0.67560519     1.5687427      188.35975      107.64864      182.06727     -6.7118266      158.39373      101.02953      103.87867     -301.18809     -120.97213      3691718.1    
   1516000   299.79468      0.89362883     0.67604953     1.5696784      188.42845      107.59127      182.31504     -111.21313     -154.2827      -114.48771     -12.694888     -427.41907     -29.606396      3696119.5    
   1517000   299.99713      0.89423232     0.67769668     1.571929       188.43532      107.58991      182.35686     -41.370351     -22.643808     -133.12449      72.043454     -223.03146     -18.393854      3697055.5    
   1518000   300.97418      0.8971447      0.6769846      1.5741293      188.39876      107.63816      182.2224       27.709302      91.005582      112.79793     -96.910514     -418.12946      46.247014      3695269      
   1519000   300.9802       0.89716266     0.67746365     1.5746263      188.36584      107.67613      182.16338      43.250512     -86.55544      -104.82816     -19.924194     -388.34681      61.534858      3694729.8    
   1520000   299.99317      0.89422051     0.68073239     1.5749529      188.41479      107.64667      182.29543     -269.64961     -14.423125      103.24118      44.030042     -391.29144     -136.9271       3697356.7    
   1521000   299.87491      0.89386798     0.6765607      1.5704287      188.40673      107.6308       182.376        252.6531       162.49566     -129.75356      17.644267     -167.80408      30.991531      3698287.6    
   1522000   299.86929      0.89385124     0.67790172     1.571753       188.42202      107.59643      182.3045      -146.30257     -97.062923      96.818709     -50.115197     -263.19222     -205.00119      3695956.8    
   1523000   299.657        0.89321844     0.67839739     1.5716158      188.42371      107.57933      182.15964      129.04127     -36.093541     -124.79846     -159.08508     -259.14448     -103.69295      3692466.5    
   1524000   299.84313      0.89377325     0.68016763     1.5739409      188.41072      107.67948      182.3614       335.36447      148.0687      -93.376233      132.78711     -338.43174     -54.942086      3699742.3    
   1525000   299.88143      0.89388742     0.67668617     1.5705736      188.33552      107.59514      182.32281      6.4528409     -139.12846     -70.469903      83.550159     -298.65374     -44.392339      3694587      
   1526000   300.1321       0.89463463     0.67932146     1.5739561      188.36308      107.62343      182.33204      95.189284     -401.08463     -130.19112     -18.767047     -338.15141     -21.226054      3696286.5    
   1527000   300.48277      0.89567989     0.6772936      1.5729735      188.42047      107.62727      182.16649      35.764712      376.41596      84.130333      85.991195     -235.39073     -251.72465      3694187      
   1528000   299.78033      0.89358605     0.67780502     1.5713911      188.43436      107.62019      182.2344       168.76311     -149.7353       187.58437      64.164606     -279.08124     -121.30368      3695593.4    
   1529000   299.92263      0.89401024     0.67768507     1.5716953      188.50107      107.62584      182.35728      185.01677     -78.775248     -193.68471     -262.0987      -240.56483     -121.24193      3699589.4    
   1530000   299.71062      0.89337829     0.67760151     1.5709798      188.49679      107.62365      182.21869     -256.21171     -93.722401     -161.11313      26.576884     -161.31096      11.921131      3696618.1    
   1531000   300.95319      0.89708212     0.68003087     1.577113       188.34613      107.62991      182.29344      81.051369      138.76238      159.55564     -49.148264     -274.39999      8.9146592      3695393.7    
   1532000   299.75893      0.89352228     0.67927724     1.5727995      188.39754      107.66271      182.26608     -121.43525      142.40213     -20.465745     -121.46476     -255.85233     -51.883381      3696974      
   1533000   300.1354       0.89464447     0.67679598     1.5714404      188.44599      107.63758      182.12874      181.39859     -306.22355     -59.382877     -150.4384      -243.54909      7.6313613      3694275.7    
   1534000   300.25132      0.89499001     0.67790424     1.5728942      188.33441      107.61011      182.20224      233.45276      50.814812      104.54436     -158.2432      -184.44185     -138.16358      3692635.8    
   1535000   299.64148      0.89317217     0.67807323     1.5712454      188.38196      107.62496      182.30971     -394.59931     -207.01193     -133.72511      25.883618     -207.93839     -86.56262       3696256.4    
   1536000   299.99472      0.89422512     0.67597428     1.5701994      188.40026      107.61384      182.30847     -51.19689      -26.005531     -22.364003      36.107347     -354.66055      64.759466      3696208.4    
   1537000   300.23724      0.89494803     0.67827883     1.5732269      188.41352      107.58748      182.27466      364.2293       0.21201209    -13.902455     -278.3992      -260.15726     -31.174948      3694877.9    
   1538000   299.78484      0.8935995      0.67570408     1.5693036      188.42642      107.62118      182.17832     -30.116855      5.135966      -44.778169      15.328079     -391.59582      13.288736      3694334.9    
   1539000   300.46726      0.89563366     0.67918554     1.5748192      188.36989      107.6211       182.21685     -92.42211      -388.17059     -141.35181     -88.80959      -237.44903     -104.90412      3694004.7    
   1540000   299.57195      0.89296493     0.67785263     1.5708176      188.49666      107.58247      182.31092      382.91029      103.18212      100.55225     -23.714407     -334.54983     -75.986509      3697071.5    
   1541000   300.409        0.89546002     0.67937507     1.5748351      188.42161      107.59497      182.17407      157.94429      36.79606       3.0494631      247.8219      -331.47663     -59.198965      3693254.7    
   1542000   299.70274      0.89335479     0.67790114     1.5712559      188.33802      107.60994      182.20706     -26.739679     -75.412627     -70.808872     -18.339592     -385.49229     -50.724006      3692798.4    
   1543000   300.17833      0.89477243     0.67695529     1.5717277      188.3709       107.62749      182.21891      376.879        167.85796     -23.227453      65.538169     -176.36834     -41.050734      3694285.8    
   1544000   299.36694      0.89235382     0.67495335     1.5673072      188.4538       107.61381      182.17444      114.9128       201.17766     -75.543344     -131.86748     -312.1212      -61.221426      3694539.8    
   1545000   299.81292      0.89368322     0.67454005     1.5682233      188.39515      107.63404      182.20078     -310.6018       108.31616      33.034666     -50.777228     -182.99996     -20.106477      3694618.3    
   1546000   300.35409      0.89529632     0.67511115     1.5704075      188.3283       107.62661      182.19598     -185.18458     -205.07397      8.0645648      57.814229     -243.285       -95.987772      3692955.2    
   1547000   300.27682      0.89506602     0.67595617     1.5710222      188.35125      107.64974      182.15864      40.11897      -19.812116      61.067142     -210.4316      -264.6295      -53.531428      3693441.8    
   1548000   300.66959      0.89623676     0.67757104     1.5738078      188.43476      107.66282      182.18361     -28.17783      -392.64407     -120.53155     -168.17741     -184.64732      79.842999      3696035.1    
   1549000   300.26093      0.89501865     0.67830384     1.5733225      188.47034      107.59937      182.19618      9.3118258      117.6716       84.67609       207.063       -263.5457       18.73187       3694809.2    
   1550000   300.48765      0.89569444     0.67666824     1.5723627      188.39206      107.57044      182.23969      115.60989      146.34227      169.35928     -128.06001     -374.43172     -31.063556      3693163.5    
   1551000   300.57811      0.89596409     0.67782506     1.5737892      188.50688      107.6241       182.1769       72.423679      162.36829     -83.019016     -6.3595687     -388.09949     -255.59057      3695983.5    
   1552000   299.88753      0.89390562     0.67668347     1.5705891      188.33999      107.63278      182.21968      210.08635      229.01349      29.09812      -138.84462     -343.50981     -18.742084      3693876.5    
   1553000   300.26567      0.89503277     0.67760185     1.5726346      188.33782      107.65472      182.32882      403.78538      202.04976     -85.493125     -20.525815     -201.91876      8.9295716      3696799.8    
   1554000   299.68197      0.89329287     0.67663924     1.5699321      188.46351      107.65172      182.20495     -190.06759     -409.94208     -49.182494      228.40631     -234.27899      39.195554      3696650.7    
   1555000   300.55379      0.8958916      0.67759026     1.5734819      188.4478       107.61924      182.25411     -6.4364826      70.963931      54.715005     -41.060791     -229.88773     -39.347478      3696224.5    
   1556000   300.26687      0.89503634     0.67730889     1.5723452      188.41511      107.64214      182.08863      8.9558579     -92.428011      9.4945834      91.060245     -393.36977     -9.8333158      3693013.4    
   1557000   300.15775      0.89471109     0.67690891     1.57162        188.36808      107.64256      182.19438      204.11983     -202.79416      48.904406      36.960432     -221.33563      15.31949       3694250      
   1558000   300.18207      0.89478357     0.67718933     1.5719729      188.50393      107.5626       182.26954      53.520876     -11.378904     -91.527377      245.01406     -271.42803     -119.32078      3695692.1    
   1559000   299.92041      0.89400362     0.67642711     1.5704307      188.52192      107.57431      182.18386     -104.64909      92.296976      8.2921953      84.276768     -105.73069      5.6451053      3694709.8    
   1560000   299.92621      0.89402091     0.67735147     1.5713724      188.43571      107.60126      182.14107      20.541759     -240.9361      -11.694369      62.209355     -209.35543     -50.366702      3693077.6    
   1561000   300.18148      0.89478181     0.67812263     1.5729044      188.3984       107.59199      182.28685      202.71341      680.40023      45.47822      -55.332954     -341.58709     -109.63793      3694983.4    
   1562000   299.82275      0.89371252     0.67507073     1.5687832      188.41393      107.58248      182.19606      17.324677     -36.288103      8.4696452     -161.49006     -358.61834      46.850201      3693121.1    
   1563000   300.19625      0.89482583     0.67849125     1.5733171      188.46104      107.6173       182.22999      190.33824      62.514312     -68.752496     -146.78602     -304.5418      -194.14123      3695928.2    
   1564000   299.48924      0.89271839     0.67715375     1.5698721      188.44057      107.5991       182.14443      139.45633     -96.762641      111.0681      -51.024428     -229.61128     -63.180161      3693166.9    
   1565000   299.77451      0.89356872     0.67849573     1.5720644      188.31163      107.64092      182.11632      51.606007     -58.119099      108.73424      177.06775     -228.49131     -106.11445      3691504.7    
   1566000   300.38372      0.89538465     0.67708348     1.5724681      188.35687      107.59966      182.15341     -62.029342     -37.539831      143.77578     -45.622145     -236.67943     -15.996777      3691727.7    
   1567000   300.47137      0.89564593     0.67792169     1.5735676      188.39712      107.63298      182.1872      -46.988635     -163.45199      12.710615      133.99337     -168.27907     -155.93494      3694345.3    
   1568000   300.3787       0.89536969     0.67577893     1.5711486      188.3497       107.60851      182.26922      288.45007     -8.7476082     -184.17352     -289.30543     -321.3602      -82.067587      3694238.1    
   1569000   300.48399      0.89568354     0.67693814     1.5726217      188.46201      107.58766      182.21157     -126.3934      -80.551887      55.654625     -92.195711     -216.71873     -95.051646      3694556.1    
   1570000   300.7831       0.89657511     0.67729639     1.5738715      188.43545      107.58382      182.21943      17.713336      225.36176      118.4265      -49.336621     -208.48659     -170.14873      3694062.6    
   1571000   300.01128      0.89427447     0.67777299     1.5720475      188.48506      107.5916       182.23262     -191.92666      30.118822      7.5617903     -4.721768      -332.73281     -26.331218      3695569.9    
   1572000   300.18366      0.89478831     0.67818881     1.5729771      188.35247      107.60684      182.22664      639.72689      185.59524      187.39402      263.82586     -344.52225     -45.19261       3693372.3    
   1573000   300.26878      0.89504205     0.67641538     1.5714574      188.44282      107.65361      182.20728     -211.00672     -127.43101     -31.983009      189.08844     -269.63006     -23.449252      3696357.2    
   1574000   300.25878      0.89501222     0.6760481      1.5710603      188.37965      107.64972      182.1883       274.58001      141.69124      206.2666       76.352743     -168.24898      60.977109      3694599.7    
   1575000   300.26534      0.89503178     0.67866636     1.5736981      188.44473      107.60353      182.25723     -148.71348      59.887663      143.97041      95.414246     -340.74817      48.823768      3695687.8    
   1576000   299.87687      0.89387383     0.67631327     1.5701871      188.43463      107.62632      182.15058      240.18545      166.50586      155.08969     -18.787928     -264.94016      133.1738       3694109.7    
   1577000   299.47338      0.89267112     0.67790729     1.5705784      188.46555      107.63569      182.12883      342.14313      168.151        123.16576     -173.71667     -110.32152     -87.940415      3694596      
   1578000   300.7355       0.89643323     0.67711684     1.5735501      188.39322      107.62823      182.23313      285.51116     -151.98549     -54.447133     -7.940857      -100.21112     -45.281866      3695037.1    
   1579000   299.97606      0.89416951     0.67754455     1.5717141      188.45063      107.61712      182.27136      57.942306      68.380693     -168.20897      22.883643     -280.37941      54.402664      3696556.7    
   1580000   299.98204      0.89418732     0.67888991     1.5730772      188.42317      107.62429      182.19318     -74.492283     -161.80807      217.01464     -111.68026     -117.65336     -79.429428      3694679.1    
   1581000   299.57319      0.89296861     0.67799968     1.5709683      188.47658      107.59817      182.11402      16.745267      68.116663      222.92905     -24.723824     -250.07155     -234.45782      3693223.9    
   1582000   300.88767      0.89688682     0.67691463     1.5738015      188.4451       107.60588      182.16339      22.739128     -50.805963      7.6544257      210.88231     -88.170888     -52.540942      3693873      
   1583000   300.09989      0.89453862     0.67621908     1.5707577      188.46358      107.55836      182.1959       30.566268      54.82791       42.127592      0.53261609    -196.91785     -12.847311      3693262.7    
   1584000   300.18528      0.89479314     0.67703954     1.5718327      188.38856      107.57753      182.22747      259.08226      149.13593     -47.586394     -91.872444     -423.98074     -79.62812       3693090.4    
   1585000   300.07075      0.89445176     0.67800763     1.5724594      188.38438      107.63129      182.17387     -223.2921      -57.188183      73.110505      14.819071     -214.25866      55.66391       3693767.2    
   1586000   300.04455      0.89437366     0.67638851     1.5707622      188.42337      107.59943      182.20723      231.09701      44.023602      126.80641      135.86271     -252.75544     -216.24763      3694114.5    
   1587000   299.88467      0.89389709     0.67858773     1.5724848      188.29528      107.66273      182.32092      184.00044      11.670925     -229.09805     -144.29981     -300.60775     -85.767823      3696079.6    
   1588000   300.72376      0.89639825     0.67799084     1.5743891      188.41328      107.62649      182.14488     -1.8742245      65.647915     -78.31016       125.98414     -152.80161     -153.84528      3693581.2    
   1589000   299.72931      0.89343398     0.67494841     1.5683824      188.47366      107.61461      182.17987      110.96381      28.805053     -16.844626     -86.780785     -95.488751     -99.30942       3695066.7    
   1590000   299.9627       0.89412966     0.67575698     1.5698866      188.43407      107.60921      182.15586      202.51812     -245.32959     -73.039842      69.383731     -306.67206      12.400771      3693618.2    
   1591000   300.23118      0.89492997     0.67582447     1.5707544      188.43146      107.63332      182.15816     -144.31782     -213.08669     -32.422319      6.9180214     -356.232        22.211154      3694441.2    
   1592000   299.86857      0.89384908     0.67662495     1.570474       188.45071      107.62432      182.15018      154.43514      41.49257      -102.44546      12.53407      -184.02052     -266.60253      3694347.9    
   1593000   300.00538      0.8942569      0.67750279     1.5717597      188.48096      107.58082      182.15851      80.163951      20.687724      63.158732     -126.5065      -287.00135      12.216595      3693616.6    
   1594000   300.00394      0.89425261     0.67578253     1.5700351      188.36429      107.65069      182.1501      -15.691466     -130.44009     -139.72454      66.959648     -266.8053      -76.024482      3693556.9    
   1595000   299.67194      0.89326298     0.67606004     1.569323       188.37634      107.64846      182.23718     -279.02357      52.541937     -74.431532      26.278596     -215.1826      -186.14956      3695482.7    
   1596000   299.75716      0.89351699     0.67634912     1.5698661      188.44353      107.54669      182.21843     -61.527721     -150.82296     -159.78871     -73.543588     -244.78274      97.332191      3692925.8    
   1597000   299.4883       0.89271558     0.6766176      1.5693332      188.42918      107.61303      182.20798     -35.536609      173.15227     -51.103427     -65.283024     -298.48446      56.227273      3694710.7    
   1598000   299.92869      0.89402831     0.6763373      1.5703656      188.41571      107.58933      182.09455     -60.183385      348.64239      32.808077     -123.80824     -197.20993     -243.02604      3691333.3    
   1599000   299.70979      0.89337579     0.67684553     1.5702213      188.47132      107.5888       182.20494     -151.1016      -140.09906     -117.08055     -93.477724     -207.10803     -9.7120259      3694643.2    
   1600000   299.58767      0.89301178     0.67568621     1.568698       188.5205       107.61187      182.05142     -3.8265903      2.0360494      153.34253      317.74839     -131.43396      33.689205      3693285.1    
   1601000   301.08979      0.8974893      0.67708682     1.5745761      188.39593      107.64137      182.17226     -26.312405     -68.697652      302.87485      60.381759     -264.26374     -89.760154      3694307.1    
   1602000   299.58831      0.8930137      0.67653523     1.5695489      188.34881      107.58052      182.12942      345.73056      189.15588      74.976472      104.71554     -215.74627     -36.443797      3690426.9    
   1603000   299.92123      0.89400607     0.67629485     1.5703009      188.4322       107.59162      182.08659      86.305273      268.33015     -106.28199      151.88131     -261.98482      34.422743      3691573.7    
   1604000   300.15425      0.89470065     0.67662378     1.5713244      188.40019      107.57826      182.25224     -16.020347     -119.21134     -258.31125      154.61682     -403.45427      11.580152      3693845.6    
   1605000   300.74925      0.89647421     0.67696536     1.5734396      188.49673      107.57616      182.18582     -272.67527     -119.56482     -158.55109     -16.331473     -215.06258     -71.99842       3694319.1    
   1606000   299.3119       0.89218977     0.67482756     1.5670173      188.52503      107.5917       182.09565     -152.43367      189.45361      152.9473       57.971251     -180.79517     -107.27771      3693578.7    
   1607000   300.72828      0.89641173     0.67545719     1.5718689      188.4711       107.55318      182.2311       26.709254      51.745032     -5.68303        125.16155     -165.05366     -31.795924      3693945.8    
   1608000   299.81205      0.89368061     0.6759168      1.5695974      188.52743      107.56736      182.20161     -16.974136      66.170684     -75.10422       35.433421     -196.38585     -139.7234       3694939.1    
   1609000   300.43581      0.89553992     0.67833906     1.573879       188.44442      107.55402      182.10503     -26.362848     -139.56015      47.157476     -317.62263     -110.66269     -86.500234      3690896.7    
   1610000   300.07262      0.89445731     0.6763805      1.5708378      188.4715       107.5964       182.12899     -167.82572     -168.955       -236.55561      109.37305     -235.49959     -121.18695      3693367.5    
   1611000   300.31241      0.8951721      0.67648716     1.5716593      188.42801      107.59588      182.23878      320.4691      -140.52585      19.17173      -68.69598      -293.79528      31.735139      3694723.2    
   1612000   300.68349      0.89627822     0.67735162     1.5736298      188.43694      107.61848      182.15646     -24.533286     -236.8345      -47.594421      197.69674     -221.29622     -154.81         3694005      
   1613000   300.10515      0.8945543      0.67787907     1.5724334      188.52025      107.62261      182.24651     -316.16929      127.9676      -35.46384      -38.547787     -149.29678     -82.559021      3697606.9    
   1614000   299.94377      0.89407325     0.67888626     1.5729595      188.52133      107.64137      182.25398      53.81996       95.301794      56.72235       85.47629      -146.68994      16.529406      3698424.1    
   1615000   299.94884      0.89408835     0.6750793      1.5691677      188.50718      107.58973      182.19624     -87.763371     -128.15192     -144.82759     -53.946271     -229.07338      15.107064      3695201.4    
   1616000   299.6279       0.8931317      0.67588802     1.5690197      188.43808      107.57338      182.1811      -6.1263179      215.32184     -98.882406      28.586604     -179.28729     -52.423556      3692978.7    
   1617000   300.0834       0.89448945     0.67632202     1.5708115      188.41649      107.56341      182.21645      254.85426      329.34739      26.151493      25.780771     -318.13897      16.68543       3692929.7    
   1618000   299.64395      0.89317953     0.67545875     1.5686383      188.43972      107.56644      182.17373     -52.794754     -72.156128      11.69889       61.170391     -241.66876     -67.470934      3692623.2    
   1619000   299.97296      0.89416025     0.6765681      1.5707283      188.52586      107.52558      182.15071      1.3126523      153.78627     -97.030808     -203.23195     -152.02247     -43.097604      3692441.2    
   1620000   300.43021      0.89552324     0.6773345      1.5728577      188.44354      107.60019      182.11852     -180.1959       129.56601     -204.39867      3.584793      -293.23814      58.099157      3692737.3    
   1621000   300.07145      0.89445384     0.67901201     1.5734658      188.43812      107.6326       182.24832     -78.292632      195.37025     -34.508885     -70.207779     -258.73607     -140.26931      3696375.8    
   1622000   300.21768      0.89488972     0.6780509      1.5729406      188.49316      107.6316       182.17906     -189.50193      152.70674     -98.569617      83.147498     -308.52537      63.553066      3696016.2    
   1623000   300.03619      0.89434873     0.67797641     1.5723251      188.48713      107.58038      182.09645      53.14413       295.09352      224.95526      210.70263     -277.81795     -50.63889       3692463.9    
   1624000   299.26936      0.89206297     0.67567706     1.56774        188.48833      107.56364      182.09559      156.66357     -167.43792      52.042614     -80.785042     -120.35422     -27.417957      3691895.7    
   1625000   300.34916      0.89528163     0.67667597     1.5719576      188.53419      107.5525       182.13251      205.18773      236.57986     -35.652824     -216.63913     -208.06335     -17.507344      3693159.8    
   1626000   299.3983       0.8924473      0.67665233     1.5690996      188.54319      107.60099      182.22146      120.65261     -381.00009      28.407435     -157.94462     -156.75012      7.290345       3696805.6    
   1627000   300.30752      0.89515752     0.67777621     1.5729337      188.45967      107.61501      182.18192      12.38351      -103.49655     -125.43576     -97.861365     -95.002217     -36.273979      3694847.7    
   1628000   300.06884      0.89444605     0.67693809     1.5713841      188.47061      107.5831       182.20548     -73.584797      549.76303      241.26218     -196.18091     -240.90652      14.551087      3694444.4    
   1629000   299.64212      0.8931741      0.67609369     1.5692678      188.48049      107.61565      182.1614       113.55013      2.8923177      336.37434     -36.247982     -258.24248      59.466743      3694861.7    
   1630000   300.10052      0.89454049     0.67565458     1.5701951      188.35233      107.60723      182.09261     -158.85951     -17.577111     -34.007491     -105.17495     -276.70571      86.974477      3690666.1    
   1631000   300.057        0.89441075     0.67732086     1.5717316      188.43741      107.60719      182.26058     -166.16345     -243.73361     -71.881649      75.589361     -37.283531     -215.76026      3695738.2    
   1632000   299.61807      0.89310241     0.67690805     1.5700105      188.48677      107.62402      182.15294      158.6045       342.63433     -31.884829     -204.46067     -234.74096     -86.537006      3695100.6    
   1633000   299.72908      0.8934333      0.67749923     1.5709325      188.52846      107.60462      182.11763     -27.348222     -131.29944      6.6096268      156.60794     -314.82046     -133.82681      3694535.5    
   1634000   299.95487      0.89410633     0.67606271     1.570169       188.46098      107.6          182.03999     -214.00777      203.51138      158.4742      -6.6044447     -208.68686     -195.34485      3691479.9    
   1635000   301.02286      0.89728982     0.67516892     1.5724587      188.54816      107.57862      182.20049      114.31422      400.80736      135.98774     -20.803187     -292.46403     -22.969404      3695709.5    
   1636000   299.7409       0.89346853     0.67470338     1.5681719      188.50338      107.55917      182.12769     -131.83584      232.61503     -1.9819025      153.37367     -82.275846      2.9640913      3692687.4    
   1637000   300.49213      0.89570781     0.67613325     1.5718411      188.55746      107.57429      182.21267      64.779002      119.11856      52.414925     -155.94626     -120.23066     -252.79681      3695989.9    
   1638000   299.18135      0.89180063     0.67851026     1.5703109      188.48985      107.55476      182.07094      54.375763      63.8293       -35.333676      54.385801     -192.05358     -176.2792       3691120.8    
   1639000   299.76344      0.89353571     0.67565873     1.5691944      188.45414      107.5902       182.06524     -41.229977      104.86572      69.797519     -38.728568     -276.18975      45.343623      3691521.8    
   1640000   300.43448      0.89553597     0.67678747     1.5723234      188.54135      107.60614      182.12019      85.07874      -201.20155     -103.78793     -36.608541     -292.30563     -158.17869      3694892.3    
   1641000   299.70888      0.89337309     0.67555251     1.5689256      188.41728      107.58767      182.18848      76.612863      178.835       -10.103822      105.71477     -174.17491     -59.562395      3693211.1    
   1642000   300.05991      0.89441943     0.67654481     1.5709642      188.32626      107.58293      182.1609      -22.546756     -91.471934      31.779245     -99.92795      -82.257645     -131.55705      3690705.9    
   1643000   299.64004      0.8931679      0.67671652     1.5698844      188.41537      107.61854      182.09477     -110.23881      159.43546     -81.41626       29.132717      31.997426     -104.45526      3692333.5    
   1644000   299.84955      0.89379241     0.67327852     1.5670709      188.48657      107.59179      182.02379      86.509383      332.2048       138.72771      195.59815     -178.35081     -117.47069      3691371      
   1645000   300.01277      0.89427891     0.67553559     1.5698145      188.4553       107.59913      182.09295     -199.25109     -4.0421101      56.968357     -52.481598     -181.31526      4.6357103      3692412.7    
   1646000   300.12395      0.89461034     0.67748302     1.5720934      188.43356      107.63117      182.19494      126.53475     -90.097292     -256.91703     -179.28507     -226.6141      -135.82699      3695154.7    
   1647000   299.75473      0.89350975     0.67582957     1.5693393      188.48414      107.6295       182.06468     -141.5887      -134.41886     -85.687968     -100.76001     -210.08136      87.703388      3693446.9    
   1648000   299.66786      0.89325081     0.67666255     1.5699134      188.46009      107.61957      182.15479      100.57588     -355.85516     -138.67942      33.969685     -270.1947      -52.759561      3694462.5    
   1649000   299.99693      0.89423171     0.67803484     1.5722666      188.44131      107.6209       182.14179      171.95724      316.64106      118.30835     -0.59817649    -183.71599      103.65976      3693876.1    
   1650000   299.86987      0.89385297     0.67799702     1.57185        188.45681      107.58267      182.10148     -378.64707      146.60375      65.250943     -20.556458     -197.03589     -6.4362222      3692050.3    
   1651000   300.00669      0.89426081     0.67637341     1.5706342      188.59582      107.54722      182.07132     -186.22187     -233.68718      82.394025     -65.788317     -154.02788      49.229507      3692944.4    
   1652000   300.10631      0.89455774     0.67625379     1.5708115      188.5171       107.56133      182.13797     -425.24264     -288.82427     -90.132558      136.89201     -173.22534      12.606706      3693238.7    
   1653000   300.16997      0.89474749     0.67754774     1.5722952      188.53951      107.6083       182.20378     -73.563069      74.944224     -7.8660456      214.85452     -176.95379     -1.8120898      3696626      
   1654000   300.1046       0.89455264     0.67704425     1.5715969      188.52742      107.60403      182.15673      69.777524      41.650516      130.68225      1.7599033     -167.20036      90.5834        3695288      
   1655000   299.88675      0.89390328     0.67557012     1.5694734      188.42011      107.56908      182.16444      196.62267      159.75273      140.05562     -67.33256      -154.87511     -6.0533257      3692141.1    
   1656000   300.23343      0.89493667     0.6744556      1.5693923      188.41161      107.62005      182.1076       390.87289     -216.50939      164.86994      37.218317     -229.37113      9.1907537      3692571.4    
   1657000   300.36351      0.89532441     0.67741286     1.5727373      188.511        107.59858      182.11243      59.944184     -129.0447       246.35464      87.993453     -274.85814     -110.01046      3693880.4    
   1658000   299.64101      0.89317077     0.67595253     1.5691233      188.43715      107.63995      182.11679     -57.025372      12.163099      104.38888      150.18007     -28.678976     -81.898021      3693941.5    
   1659000   299.49978      0.89274979     0.67781502     1.5705648      188.41497      107.64042      182.14981      303.72751     -47.246707      139.11374     -23.525708     -216.90543     -45.048744      3694192.2    
   1660000   300.41126      0.89546674     0.67505733     1.5705241      188.47943      107.60235      182.19039      182.216        102.94529     -5.1832201      11.15397      -358.67274      28.9675        3694972.2    
   1661000   300.14647      0.89467747     0.6749452      1.5696227      188.52442      107.5601       182.11147      2.8953473      172.04019      5.3693792     -120.24266     -68.658879     -90.290632      3692802.5    
   1662000   300.24296      0.89496508     0.67788644     1.5728515      188.58506      107.60516      182.14128      4.9533158      120.17118     -62.866573      128.08004     -176.19599     -179.8354       3696143.1    
   1663000   299.92497      0.89401719     0.6763465      1.5703637      188.48568      107.59719      182.11298     -3.1162278      443.70756      63.689416     -87.118866     -95.184016     -67.431642      3693347.7    
   1664000   299.7417       0.89347092     0.67592383     1.5693947      188.57091      107.59057      182.06725     -48.650745     -527.07496     -134.94108     -42.74744      -118.71773     -42.492559      3693862.6    
   1665000   299.62211      0.89311444     0.67585719     1.5689716      188.55341      107.57593      182.07919      128.58818      8.1518968      77.352474      217.92505     -196.8299      -54.033139      3693259.3    
   1666000   300.36179      0.89531928     0.67794805     1.5732673      188.52418      107.56151      182.17177      37.992833     -146.61305     -3.3600862     -91.140271     -233.91238     -23.13866       3694069.2    
   1667000   299.54318      0.89287917     0.67772036     1.5705995      188.42621      107.59054      182.12901     -31.339488     -130.44055     -24.972606      190.08053     -123.95986      62.242581      3692279      
   1668000   299.86541      0.89383968     0.67328155     1.5671212      188.42988      107.58236      182.21139     -86.366444     -157.40201      82.890842      182.37062     -129.86079     -150.7695       3693740.2    
   1669000   300.3005       0.89513658     0.67676824     1.5719048      188.58314      107.60934      182.21303     -25.559662     -2.2570718     -243.16246      52.738894     -212.74996      148.48536      3697704.9    
   1670000   299.8208       0.89370671     0.67568082     1.5693875      188.54097      107.59708      182.18255     -151.16644     -80.507916     -105.58402     -221.21784     -328.55675     -96.390104      3695838.7    
   1671000   299.98079      0.89418359     0.67759727     1.5717809      188.47091      107.62529      182.17665      26.2343       -248.98409      6.5260051     -108.84239     -295.18493     -93.435944      3695314.1    
   1672000   300.03708      0.89435137     0.67403475     1.5683861      188.46693      107.57675      182.06542      210.94655     -98.798242      93.049984      172.87371     -151.60809     -123.12332      3691314.6    
   1673000   300.23346      0.89493675     0.67601466     1.5709514      188.46752      107.5985       182.11221     -67.633918     -199.54976      43.747721      33.876233     -223.54945      5.0762419      3693021.3    
   1674000   299.36385      0.89234461     0.67472472     1.5670693      188.47628      107.58508      182.07484     -92.26045       34.180326     -40.091971     -73.101339     -229.2663      -5.2190332      3691974.4    
   1675000   299.65564      0.89321439     0.67661207     1.5698265      188.39537      107.60875      182.16831      6.7384019      26.052922     -194.06864      65.387957     -223.618       -132.32697      3693096.4    
   1676000   299.55851      0.89292485     0.67708299     1.5700078      188.44963      107.61545      182.17382     -124.95636      0.75143154     81.303713      74.182242     -170.80837     -154.39512      3694501.8    
   1677000   298.92505      0.89103666     0.67654644     1.5675831      188.53994      107.59884      182.14271     -65.379557     -48.722309      109.7154       255.55803     -229.21395     -80.221667      3695070.8    
   1678000   299.48273      0.89269897     0.67620281     1.5689018      188.53935      107.56692      182.08648     -13.828758     -229.64297      128.41332      161.73445     -183.13811     -28.893432      3692822.5    
   1679000   300.33674      0.89524461     0.67831504     1.5735597      188.4416       107.57304      182.09096     -29.84445       91.000907      161.52409     -87.724037     -117.94036     -71.123559      3691208.8    
   1680000   299.92252      0.8940099      0.676395       1.5704049      188.43728      107.61101      181.95805     -264.56055      2.0189857     -209.54801      104.57688     -226.48417     -64.951708      3689731.8    
   1681000   300.73706      0.89643788     0.67764065     1.5740785      188.47573      107.59313      182.1712       78.148584      216.58631     -26.038437     -36.351088     -7.8656041     -197.69617      3694193.8    
   1682000   299.98205      0.89418736     0.67690969     1.571097       188.5292       107.58374      182.17913      91.285482      124.28319      152.28308     -56.683537     -18.167035     -174.39131      3695080.4    
   1683000   300.38662      0.89539329     0.67776373     1.573157       188.53214      107.57929      182.11674     -143.26858     -223.61315      66.9969        27.334517     -300.67932      30.453476      3693719.6    
   1684000   299.95934      0.89411966     0.67645587     1.5705755      188.50258      107.58491      182.0557      -101.52032      3.9451724      65.931119     -70.09876      -113.41379     -59.384071      3692095.5    
   1685000   300.04988      0.89438953     0.67739372     1.5717833      188.51273      107.60266      182.10773      287.34988      304.73437     -25.015716      109.79393     -154.63483     -84.940337      3693959      
   1686000   300.82938      0.89671307     0.67720702     1.5739201      188.52275      107.63941      182.08072     -269.32624     -220.48669      186.05105     -25.277304     -209.34672      25.014223      3694869      
   1687000   300.15276      0.89469621     0.67503261     1.5697288      188.42958      107.56309      182.06121      60.450263      67.144612      31.557119     -94.689883     -258.60421     -79.404045      3690028.8    
   1688000   299.68361      0.89329776     0.67644965     1.5697474      188.49159      107.59269      182.11306      29.715037     -143.45351     -162.22255      151.45734     -249.87063     -82.695141      3693310.6    
   1689000   300.29224      0.89511198     0.67655466     1.5716666      188.54518      107.60661      182.16345     -141.05647      246.44746     -11.834772      366.19857     -89.178888     -100.6733       3695860.8    
   1690000   300.00227      0.89424763     0.6780708      1.5723184      188.66076      107.55645      182.18461     -263.28027      48.912819     -64.408369      166.76889     -89.595729     -117.07907      3696832.2    
   1691000   300.07821      0.89447399     0.67718707     1.5716611      188.4882       107.54971      182.03362     -228.97386      112.63652      119.8167      -1.5616556     -166.64002     -41.517083      3690158.2    
   1692000   299.68528      0.89330274     0.67752028     1.570823       188.50241      107.59793      182.12306      234.04722     -286.96211     -191.82534      25.503077     -180.75053     -8.0036781      3693905.4    
   1693000   300.16219      0.8947243      0.67829177     1.5730161      188.51294      107.56981      182.18883     -70.226882      43.856965      246.30934      87.883499     -125.8564      -27.283501      3694479.8    
   1694000   300.18559      0.89479405     0.67314865     1.5679427      188.52748      107.57513      182.06651      174.9346       62.408099      73.818946      40.320996     -156.28138      4.5906969      3692466.9    
   1695000   299.77204      0.89356135     0.67806178     1.5716231      188.63094      107.59485      182.2222      -234.0652      -217.26691     -172.66942      66.783345      40.78012      -84.630122      3698330.4    
   1696000   300.33268      0.89523252     0.67900816     1.5742407      188.47986      107.56406      182.23688     -6.2283293      167.63015     -82.598595     -104.96567     -154.45587      2.5633688      3694608.6    
   1697000   300.09285      0.89451764     0.67630994     1.5708276      188.49226      107.53955      182.10428      167.86193     -208.7031      -114.59268      19.984787     -290.81753     -34.138223      3691321.6    
   1698000   299.82506      0.8937194      0.67697028     1.5706897      188.534        107.57413      182.10838     -58.649218      47.893399      93.316117      125.83987     -141.34599     -30.538654      3693409.6    
   1699000   300.08663      0.8944991      0.67678995     1.5712891      188.40144      107.55322      182.10078      15.241748     -2.956283      -42.168737     -121.66005     -137.87941     -40.863969      3689941.2    
   1700000   300.09073      0.8945113      0.67833283     1.5728441      188.46235      107.59433      182.17787      34.62292       163.92368      24.17527      -57.767264     -277.36384      73.816069      3694108.3    
   1701000   300.30095      0.89513793     0.67871005     1.573848       188.53727      107.59751      182.06885      95.672312     -86.275264      270.60919      69.875194     -54.785395     -130.92163      3693474.2    
   1702000   299.87559      0.89387001     0.67722306     1.5710931      188.60733      107.57197      182.12224     -349.79794     -184.69368     -15.332319     -219.93911     -115.47878     -64.360741      3695053.1    
   1703000   300.36275      0.89532214     0.67671413     1.5720363      188.54434      107.5799       182.21825      66.370542     -130.50244     -200.75028     -12.706703     -239.19535      89.446569      3696038.8    
   1704000   299.60226      0.89305527     0.67645737     1.5695126      188.49776      107.57457      182.10839     -128.0329       19.534851     -8.8334316      61.719866     -252.36311     -199.43985      3692714.9    
   1705000   300.14063      0.89466005     0.67725717     1.5719172      188.46065      107.56998      182.05393      174.40469      381.49109      35.315771      3.4502839     -156.92116     -63.736582      3690726.1    
   1706000   299.75636      0.89351461     0.67693184     1.5704465      188.5738       107.58049      182.07863     -68.361799     -42.399518     -35.133107      49.275262      27.194064     -71.295672      3693804      
   1707000   300.46468      0.89562599     0.67681587     1.5724419      188.66251      107.57537      182.20015      136.45584      224.0952       40.129389      116.64776     -145.78782     -66.375162      3697831.9    
   1708000   300.43415      0.89553496     0.67594201     1.571477       188.52822      107.56929      182.20986     -265.45121      161.7749      -133.87357     -56.047009     -405.16634     -124.12697      3695188      
   1709000   300.04306      0.89436922     0.67529287     1.5696621      188.53984      107.55899      182.10201     -278.12516     -31.77707      -135.24981     -216.70738     -292.51357     -78.264459      3692874.9    
   1710000   300.33581      0.89524186     0.67737909     1.5726209      188.57771      107.62465      182.11862      100.92941     -106.61818      12.408798      120.31342     -184.68367     -45.333788      3696208.4    
   1711000   299.91448      0.89398594     0.67788348     1.5718694      188.54265      107.59406      182.22545     -105.34314      4.4580044     -131.63481     -57.02998      -156.67555     -9.9302415      3696638.2    
   1712000   299.08969      0.8915274      0.67852117     1.5700486      188.52584      107.60138      182.16015      0.21478125     29.672898     -103.36518      127.95915     -134.57255     -41.738777      3695235.3    
   1713000   299.31571      0.89220112     0.67478764     1.5669888      188.50432      107.61059      182.09763     -93.435112     -246.99481     -108.34975      243.02639     -4.6772102     -57.539323      3693861.4    
   1714000   299.86072      0.89382569     0.67725485     1.5710805      188.59032      107.5496       182.04086     -139.54535      36.600956      219.87312     -132.55479     -189.83101     -69.765058      3692300.7    
   1715000   300.33855      0.89525002     0.67592592     1.5711759      188.54978      107.58704      182.13653      279.39648      190.57554     -34.345098      74.157347     -101.89         21.032941      3694732.6    
   1716000   299.96245      0.89412892     0.67534921     1.5694781      188.46284      107.62342      182.16529      105.03224     -17.443595     -30.374679      31.747187     -276.27265     -90.56908       3694861.2    
   1717000   300.47942      0.89566991     0.67626881     1.5719387      188.51443      107.57005      182.15599      14.13128       422.33644     -34.208451     -157.18662     -105.44294      65.233193      3693851.6    
   1718000   300.18723      0.89479896     0.67586007     1.570659       188.57459      107.57617      182.09574     -30.119055     -208.73006      183.22524     -99.385429     -103.70953      40.301853      3694018.3    
   1719000   299.99722      0.89423257     0.6767867      1.5710193      188.5772       107.57915      182.06341      297.49239     -184.82419      106.38598     -83.408275     -43.2173       -73.730136      3693515.9    
   1720000   299.84082      0.89376639     0.67461263     1.568379       188.5692       107.57905      182.0797      -192.10139     -105.78122      224.2182      -8.9073893     -228.50333      32.230069      3693686.1    
   1721000   300.58234      0.89597669     0.67744046     1.5734171      188.65948      107.56557      182.15705      136.70864     -257.29331      15.615185      94.713891     -128.49275     -9.14933        3696561.5    
   1722000   300.13746      0.8946506      0.6745164      1.569167       188.49379      107.56361      182.11383      194.61011      377.96578     -16.717155     -296.0173      -66.922375     -180.93763      3692371.1    
   1723000   299.56454      0.89294285     0.67682486     1.5697677      188.61608      107.52122      182.07947      35.671126      226.83135     -101.97327     -116.46318     -76.072813      13.859664      3692614.1    
   1724000   299.87012      0.89385372     0.67633997     1.5701937      188.55054      107.56406      182.06593      58.243948     -116.23002     -52.920401     -84.526513     -143.64205      21.777083      3692526.9    
   1725000   299.71061      0.89337823     0.67491847     1.5682967      188.58906      107.58266      182.05597     -437.90738     -56.994238     -157.24259      77.359282     -104.94448      82.144001      3693717.5    
   1726000   299.98917      0.89420857     0.67668396     1.5708925      188.53099      107.51107      182.20278      219.65916      51.16915      -92.652917      116.9965      -202.52319      47.91575       3693098.9    
   1727000   300.02314      0.89430984     0.67634164     1.5706515      188.45195      107.58061      182.17323      43.223234      321.89809      20.448833      176.34274     -173.56657     -173.76514      3693339.2    
   1728000   299.73104      0.89343915     0.67511105     1.5685502      188.44879      107.56915      182.01739     -72.196418      238.41493     -23.216605     -26.238265     -125.32651     -182.77834      3689724.8    
   1729000   299.88415      0.89389554     0.67789329     1.5717888      188.53875      107.54797      182.11127      55.912623      45.369426      64.719146     -8.6466226     -134.31463      18.327828      3692662.9    
   1730000   299.95292      0.89410054     0.67747594     1.5715765      188.55491      107.5967       182.19676     -155.90809     -37.83498       41.01066      -35.746541     -76.627116     -85.667336      3696387.1    
   1731000   300.15082      0.89469041     0.6777079      1.5723983      188.4688       107.58602      182.18042      254.13749      9.7379067      152.27595     -7.5347745     -188.69445     -196.49209      3694000.9    
   1732000   300.16755      0.8947403      0.67480998     1.5695503      188.47353      107.59099      182.02136      144.97509      332.22941      14.834608      87.784532     -68.516199     -173.84734      3691039.1    
   1733000   299.73406      0.89344813     0.67624593     1.5696941      188.52917      107.56505      182.0053      -180.47157     -263.27136      19.697143      127.75064     -147.37737     -46.647993      3690912.8    
   1734000   300.06498      0.89443456     0.67892809     1.5733626      188.51279      107.55999      182.06816      162.2139       67.274748      32.461827     -121.86633     -212.58642      15.52625       3691693      
   1735000   300.0013       0.89424472     0.67614536     1.5703901      188.44501      107.61684      182.07817      90.17191      -40.398986     -161.39917      299.64494     -125.71435     -49.68392       3692518.9    
   1736000   299.17657      0.89178637     0.67673486     1.5685212      188.48979      107.58769      182.0955       72.492388     -85.738955     -92.227269      77.830209     -136.58599     -75.247963      3692747.4    
   1737000   299.72124      0.89340993     0.67478073     1.5681907      188.49163      107.55095      182.00944      104.19655      168.40359      234.70981     -143.08329     -223.34373     -26.095839      3689778      
   1738000   300.26562      0.89503261     0.67571865     1.5707513      188.55924      107.58214      181.95816     -159.3502      -120.57238      27.547916     -33.05472      -102.18063     -28.065118      3691131.5    
   1739000   300.47309      0.89565106     0.67739729     1.5730483      188.5529       107.59416      182.14457     -83.252286     -312.71248     -1.6313478     -23.044063     -246.03479     -115.286        3695201.6    
   1740000   299.62846      0.89313338     0.67612579     1.5692592      188.41868      107.54602      182.11465      151.08748      37.414934     -23.690854      98.653237     -123.04177      94.659727      3690312.7    
   1741000   299.80884      0.89367106     0.67624747     1.5699185      188.52216      107.51805      182.08319      19.57376       139.40612      22.054343      53.536362     -52.502784      111.7794       3690741.5    
   1742000   299.93249      0.89403961     0.67589725     1.5699369      188.61526      107.51793      182.12633     -23.219228      124.19828     -20.163046     -27.072684     -141.7461      -122.10299      3693434.8    
   1743000   299.74416      0.89347825     0.67768773     1.571166       188.63521      107.56468      182.21778     -276.39368     -152.24856     -26.455429      307.47894     -111.20186     -22.279783      3697287.2    
   1744000   300.19049      0.89480868     0.67707998     1.5718887      188.51627      107.56028      182.12347     -86.572885     -189.49418     -235.57282      85.392107     -243.15282      19.237053      3692892.7    
   1745000   300.91578      0.89697063     0.6766644      1.573635       188.4824       107.5606       182.05913      343.44428      99.999871     -68.966833     -86.753774     -41.720104     -125.58916      3690935.8    
   1746000   299.67955      0.89328567     0.67469193     1.5679776      188.45123      107.55077      182.14607      279.18638      133.51159     -25.197379     -10.817448     -2.2160413     -21.248366      3691750.3    
   1747000   299.92389      0.894014       0.67746298     1.571477       188.52505      107.61953      182.16829      255.22135      189.00248      99.056619     -312.88845     -82.813539     -68.402132      3696008.3    
   1748000   300.37967      0.89537259     0.67615941     1.571532       188.51649      107.56259      182.06956     -51.904334     -474.09385     -88.32885      -16.612659     -223.09217     -95.744923      3691883      
   1749000   299.97991      0.89418097     0.67963211     1.5738131      188.56809      107.60971      182.06731      20.762267     -479.46919      131.9321      -158.68954     -34.020151     -71.859834      3694465.5    
   1750000   300.24175      0.89496148     0.67701832     1.5719798      188.50056      107.58475      182.10573      220.39904     -308.73637      33.421227      78.633215     -192.01089     -170.83643      3693065.1    
   1751000   300.02574      0.89431759     0.67594011     1.5702577      188.59039      107.53609      182.1513       223.45966     -191.57817      55.668099      47.355982     -127.69961      66.399084      3694078.2    
   1752000   300.12431      0.89461139     0.67685808     1.5714695      188.55551      107.53982      182.11248     -29.909014     -1.9733298      21.705884      136.24084     -120.78272     -11.301293      3692735.8    
   1753000   300.37824      0.89536832     0.67668954     1.5720579      188.52772      107.58688      182.21309      70.244955     -108.5409      -103.96851      94.524878     -113.46927      152.13724      3695847.9    
   1754000   299.41265      0.89249008     0.67620526     1.5686953      188.43485      107.58649      182.08211     -425.36374      78.867482      2.9602894     -69.728219     -43.873728     -125.04242      3691358.8    
   1755000   300.4121       0.89546925     0.67629727     1.5717665      188.53632      107.56919      182.06983     -34.862512     -103.47041      99.136011     -98.972908     -10.243687     -45.498302      3692503.6    
   1756000   299.34587      0.89229101     0.67814699     1.570438       188.48823      107.53445      182.21001     -0.34636604    -0.43267087    -32.540039     -255.25888     -102.61033      190.58331      3693210.6    
   1757000   299.77074      0.89355748     0.67661361     1.5701711      188.61867      107.54975      182.10699     -122.10394      430.20865      13.920148     -173.75288     -300.84449     -111.88779      3694202.3    
   1758000   300.03618      0.89434871     0.67688391     1.5712326      188.66679      107.53157      182.07588     -308.73856      321.5078       236.90591     -159.80742     -67.220995     -42.718498      3693889.4    
   1759000   300.246        0.89497414     0.67759875     1.5725729      188.50332      107.58963      182.08782      59.083918      234.26549      94.012965     -105.41679     -144.65859      10.183146      3692923.7    
   1760000   300.00468      0.8942548      0.67596954     1.5702243      188.4355       107.60244      181.98318      316.09517     -44.68189      -173.89791      98.211994     -20.899842      69.87003       3689912.9    
   1761000   299.83573      0.8937512      0.67796685     1.5717181      188.46776      107.56001      182.09285     -65.696821     -202.86642     -55.642889     -275.39009     -72.614817     -176.36252      3691312.2    
   1762000   299.80191      0.8936504      0.67675205     1.5704025      188.55016      107.56281      182.08728      113.51647      308.28084      3.8912401     -95.18881      -39.307315      13.296462      3692909.4    
   1763000   300.17514      0.89476292     0.67580701     1.5705699      188.53318      107.60271      182.14251     -35.576179     -172.57485      6.173176       140.83625     -173.23107      78.213933      3695067.2    
   1764000   299.46524      0.89264684     0.67730724     1.5699541      188.56676      107.56897      182.07233      33.138396      62.398229     -23.944441     -146.93315     -38.598271     -42.423799      3693142.7    
   1765000   300.38746      0.8953958      0.67478186     1.5701777      188.5289       107.57394      182.06452      197.09099      82.718566     -166.29631      77.925104     -164.65733     -85.502415      3692413.3    
   1766000   299.58592      0.89300657     0.67705987     1.5700664      188.66469      107.57493      182.17184     -18.83512       108.13552     -16.023089      15.234975     -73.297695     -54.710966      3697285.3    
   1767000   300.0333       0.89434013     0.6743312      1.5686713      188.59924      107.55785      182.07704     -163.14756      185.33419      71.740517      64.813015     -63.964116     -52.055557      3693492.6    
   1768000   299.98262      0.89418904     0.67666243     1.5708515      188.63732      107.50028      182.22779      124.60139      508.38145      73.850236     -62.047749     -30.167954      81.988293      3695317.9    
   1769000   299.24955      0.89200391     0.6763775      1.5683814      188.5776       107.5352       182.08389      195.1707      -32.086644     -12.524765     -71.398835     -73.919529      42.881926      3692429.9    
   1770000   300.43843      0.89554774     0.67397177     1.5695195      188.60391      107.55474      182.05597      163.58446      40.178452     -44.855606      88.144689     -88.653121      39.792211      3693049.9    
   1771000   300.08995      0.89450898     0.67703386     1.5715428      188.6563       107.56278      181.96991     -114.20786      62.926445      207.76278      68.126071     -28.516542     -74.23965       3692605.6    
   1772000   300.59735      0.89602143     0.67553464     1.5715561      188.53987      107.59192      182.18656     -96.630595     -244.44027     -126.21121     -127.23348     -118.22071     -66.487747      3695721.3    
   1773000   299.89681      0.89393326     0.67649877     1.570432       188.49841      107.57816      182.10084      91.497839     -96.47533      -10.631665      60.105511      104.39137      72.459837      3692697.8    
   1774000   300.51914      0.8957883      0.67686691     1.5726552      188.4857       107.58099      181.88192     -362.84041     -352.23218      6.8465589     -84.472715     -86.435145     -100.68107      3688106.7    
   1775000   300.27319      0.89505517     0.67473874     1.5697939      188.49707      107.61531      182.10537      23.672221     -210.63168      69.738554     -170.92432     -33.561978     -104.04559      3694038.4    
   1776000   299.86169      0.89382859     0.67520506     1.5690336      188.56623      107.55147      182.00632     -58.341282      355.82974      161.27923      46.931996     -75.09708      -81.039389      3691192.9    
   1777000   300.30746      0.89515734     0.67504747     1.5702048      188.5975       107.60647      182.01378     -63.609743      128.15832     -79.991394      11.93206       58.893786      67.698271      3693844.2    
   1778000   300.29155      0.89510991     0.67774852     1.5728584      188.5948       107.60658      182.14256     -461.64548     -345.84777     -29.151876      46.59001      -188.59788     -40.500405      3696408.7    
   1779000   299.4931       0.89272988     0.67685978     1.5695897      188.62524      107.59009      182.09554     -105.654        15.172241      81.73061       94.534528      15.898396     -9.612691       3695484.6    
   1780000   299.53664      0.89285967     0.67656973     1.5694294      188.61419      107.54144      182.22957      195.0605       456.47151     -145.04732     -38.533875     -91.740145     -20.852715      3696315.7    
   1781000   299.48965      0.89271962     0.67743998     1.5701596      188.60091      107.54204      182.18278     -182.71093     -504.39029     -75.268277     -338.5386      -137.77083     -54.914415      3695127.2    
   1782000   299.79499      0.89362977     0.67529901     1.5689288      188.50275      107.56496      182.1364      -126.10818      233.43244      41.362057     -121.47954     -76.772322     -9.7502896      3693050.4    
   1783000   299.6222       0.8931147      0.6771031      1.5702178      188.53757      107.57441      182.11165      78.613506     -7.4706502     -86.756307     -42.421117      120.06395     -204.8432       3693555.3    
   1784000   299.86848      0.89384884     0.67796341     1.5718122      188.44997      107.55575      182.13718      274.59929     -141.49037     -41.644205      207.58176     -89.011722     -29.922305      3691716.3    
   1785000   299.82444      0.89371754     0.67746204     1.5711796      188.56985      107.57084      182.08821      127.80738      152.46064      179.7557      -34.939118     -79.898976     -35.651334      3693589.7    
   1786000   299.80265      0.89365258     0.67724207     1.5708947      188.63984      107.54805      182.12595     -99.983946     -139.79188     -153.64001     -80.323503     -129.77352      1.5401871      3694943.3    
   1787000   299.82624      0.89372291     0.67857873     1.5723016      188.47959      107.65055      182.15694      72.423043     -309.18949     -313.99911     -218.77289     -124.99009     -10.376061      3695952      
   1788000   299.97464      0.89416527     0.67592652     1.5700918      188.56802      107.57388      182.03186     -158.48754     -292.84601     -71.467854      41.341506     -57.168807      4.7328416      3692515.1    
   1789000   300.06962      0.89444838     0.67597272     1.5704211      188.48872      107.60292      182.12825      293.81293      89.521682     -59.241854     -45.02446      -188.5232      -43.271834      3693913.7    
   1790000   300.04407      0.89437221     0.67641196     1.5707842      188.54699      107.62492      182.07218      30.631059     -0.88177654     109.85963      83.051146     -74.771981      44.263628      3694673.2    
   1791000   300.27532      0.89506153     0.67879204     1.5738536      188.60886      107.62722      182.08488      117.60221     -210.16336      48.52523       68.394252      68.3541        55.098684      3696222.6    
   1792000   299.95911      0.89411898     0.67667808     1.5707971      188.68269      107.59592      182.13814      330.41991      339.50202      77.027831     -106.79509     -67.449559     -37.867726      3697675.3    
   1793000   300.05322      0.89439949     0.67591495     1.5703144      188.53679      107.61623      182.16332     -161.3104      -20.942552      107.5957       58.541065     -38.616307     -29.495202      3696024.4    
   1794000   299.74927      0.89349349     0.67944386     1.5729373      188.53244      107.6115       182.08975      22.642353     -90.397854      254.92711      48.216221      43.111586      6.4351369      3694284.2    
   1795000   300.29448      0.89511865     0.6786746      1.5737932      188.64665      107.56099      182.12071      91.969565     -103.7871       160.10432      165.69731     -67.415437      112.73565      3695415.1    
   1796000   300.51754      0.89578353     0.67695639     1.5727399      188.65944      107.52307      182.10709     -7.9359712      77.587988     -31.754918     -182.63437     -70.166081     -26.552409      3694086.5    
   1797000   300.99996      0.89722155     0.67572467     1.5729462      188.50043      107.56231      182.07166     -127.38176      150.05499      178.22014      66.65284      -91.414356      42.051599      3691601.5    
   1798000   299.59888      0.89304519     0.67789075     1.5709359      188.59461      107.55554      182.14292     -1.8468466     -54.992263      18.766269      145.57659      21.622056     -15.590021      3694659.1    
   1799000   300.13622      0.89464692     0.67631392     1.5709608      188.58236      107.56023      182.10574     -75.679667      253.90858     -22.775676      3.8441658     -103.95654     -48.510028      3693825.9    
   1800000   300.39288      0.89541197     0.678219       1.573631       188.64758      107.57039      182.00999     -111.05669     -311.42203     -1.0749695     -254.73125     -81.636165      22.939637      3693509.5    
   1801000   299.68884      0.89331336     0.67739453     1.5707079      188.58588      107.58316      182.1585       6.6803198     -53.906995      29.776361     -77.777458     -61.117802     -38.180367      3695752.6    
   1802000   300.13319      0.89463787     0.67738527     1.5720231      188.67849      107.57375      182.03605      59.647082      185.1661       123.50788      54.82394      -92.862685      87.035384      3694758.8    
   1803000   300.27585      0.89506311     0.67631152     1.5713746      188.58143      107.55641      182.08425      23.776569      203.79522      244.46522     -112.54676     -182.57534      15.002193      3693240.4    
   1804000   299.56451      0.89294274     0.67959024     1.572533       188.57916      107.54144      182.06313      95.535431     -127.60269     -65.316688      38.488366     -136.24205      8.1317025      3692254      
   1805000   299.63074      0.89314016     0.67547119     1.5686113      188.51908      107.57602      182.08649      95.555785     -19.689496      17.944533     -11.125913     -97.69714      -1.5010861      3692738.3    
   1806000   300.07748      0.89447182     0.67788094     1.5723528      188.59862      107.56685      182.13063     -71.108539     -81.401171      159.52979      150.29973     -143.89519      69.938917      3694876.8    
   1807000   299.80447      0.89365802     0.67683108     1.5704891      188.54859      107.54453      182.07223      180.84539     -126.09621     -59.730264     -85.372101     -19.716715     -108.46306      3691945.7    
   1808000   300.17796      0.89477131     0.67686974     1.571641       188.61204      107.51376      182.10436      79.628592     -195.35283     -9.1967074     -67.032354     -39.475435     -121.81143      3692783.2    
   1809000   300.07007      0.89444971     0.67687328     1.571323       188.5778       107.56051      182.09859      7.3770249      65.642433      140.93154     -103.42189      32.004966     -58.484946      3693601.2    
   1810000   300.41509      0.89547815     0.67755798     1.5730361      188.62226      107.58951      181.98446     -421.14316     -32.138813     -18.94323       89.532976     -18.08396      -86.114752      3693151.8    
   1811000   300.28817      0.89509984     0.67802907     1.5731289      188.56099      107.54101      182.07282      235.77767     -15.114012      55.076574     -151.57802     -3.961955      -42.973604      3692080      
   1812000   299.79686      0.89363534     0.67445377     1.5680891      188.53598      107.57673      182.15559      157.97207     -130.90921      24.100493     -343.37412     -15.597184      47.784717      3694495.1    
   1813000   299.39244      0.89242983     0.67779318     1.570223       188.63482      107.59983      182.04156      2.9322079     -38.452137     -71.451324      265.06586     -148.05818      24.753805      3694911.2    
   1814000   300.52967      0.8958197      0.67668428     1.572504       188.63334      107.54138      182.16766      216.14358      189.11899      1.535998       126.60226      30.472074     -138.80114      3695432.9    
   1815000   299.80136      0.89364876     0.67786325     1.571512       188.60316      107.54427      182.03638     -174.58822     -46.459979     -17.703209      64.722861     -44.287977      11.56766       3692278.4    
   1816000   300.28063      0.89507735     0.67642455     1.5715019      188.58898      107.58254      182.11238     -282.13438     -609.35551      54.120513      98.676865     -50.196778     -70.375348      3694856.6    
   1817000   300.40335      0.89544316     0.67433198     1.5697751      188.58185      107.56992      182.23214     -204.82265      126.54338     -146.33254      128.56538     -105.2801       109.01166      3696712.8    
   1818000   300.54444      0.89586374     0.67641057     1.5722743      188.64657      107.549        182.12128     -381.98992     -10.62945      -246.82317     -99.716935     -145.3953       33.53566       3695013.1    
   1819000   299.77203      0.89356132     0.6770606      1.5706219      188.64577      107.56419      182.15928      132.08427     -302.87353     -90.405986     -128.98359     -64.281875     -5.145679       3696290.2    
   1820000   299.84192      0.89376964     0.67610009     1.5698697      188.60993      107.5308       182.08477     -35.682788      254.75397     -85.017265      17.378495     -20.71539      -172.21748      3692929.8    
   1821000   300.70482      0.8963418      0.67603445     1.5723762      188.58246      107.5547       182.03122      221.28859      132.41506      134.81285     -78.496428     -168.21312     -166.34982      3692126.5    
   1822000   300.02131      0.89430438     0.67660016     1.5709045      188.5092       107.52394      182.14509      279.01903      125.7952      -94.049751     -23.905676     -43.534312     -6.563245       3691944.6    
   1823000   300.24431      0.89496909     0.6748837      1.5698528      188.60131      107.5236       182.1459      -90.628703      234.19779     -4.3342944     -28.346388      7.226736       64.423274      3693753.4    
   1824000   299.90039      0.89394395     0.67726445     1.5712084      188.60411      107.5796       182.12353     -119.3403       160.88492      166.02372      67.703288     -72.117201     -8.4519856      3695278.3    
   1825000   299.55841      0.89292455     0.67401189     1.5669364      188.65855      107.56854      182.00222      315.75716      341.41933      13.450989     -72.875337      10.827025      16.923899      3693503.1    
   1826000   299.80873      0.89367073     0.67650254     1.5701733      188.59319      107.57665      182.07662      254.559        127.77761     -43.906111     -158.41534     -45.041297     -69.786315      3694011.3    
   1827000   300.03473      0.89434438     0.67676995     1.5711143      188.62133      107.52457      182.08573     -36.720099     -113.38587      89.96596       162.86391     -85.403009      70.412307      3692958.4    
   1828000   299.89453      0.89392648     0.67907896     1.5730054      188.57117      107.52846      182.15777      57.261155     -127.63005     -276.87862     -23.789081     -114.99592      15.017569      3693570.8    
   1829000   300.55826      0.89590491     0.67644907     1.572354       188.60214      107.5653       182.09513      48.576809     -61.365372      100.28321     -51.298142     -86.007729     -41.458071      3694172.2    
   1830000   299.34763      0.89229626     0.67588995     1.5681862      188.60526      107.52551      182.06526     -57.869614     -17.791282      50.435432     -64.51756       144.11075     -54.90454       3692261      
   1831000   300.40345      0.89544345     0.67764679     1.5730902      188.62884      107.5302       182.06968      70.380656     -68.046268      51.710995      16.875615     -57.118459     -185.77548      3692973.2    
   1832000   299.87859      0.89387895     0.6745757      1.5684546      188.59317      107.54317      182.11648     -53.347449      79.936794      130.66343      60.102742     -28.312315     -122.78369      3693669.4    
   1833000   300.02732      0.89432228     0.67860002     1.5729223      188.62761      107.5673       182.14906      225.60842     -123.34562      40.580103      24.616396      50.43367       4.4879708      3695834      
   1834000   299.9494       0.89409004     0.67762093     1.571711       188.47582      107.5563       182.10214     -45.716977      58.066893      174.12416      129.87481     -78.558722      7.7696863      3691531.4    
   1835000   299.61188      0.89308396     0.67687909     1.5699631      188.51468      107.57444      182.04834      298.18709     -48.511279      54.200578     -125.23857     -139.3388       45.239369      3691824      
   1836000   300.26662      0.89503559     0.67658837     1.571624       188.53908      107.54587      182.09922      90.124244      95.383718     -2.3377127      88.470135     -35.28044      -10.686957      3692352.9    
   1837000   300.65935      0.89620625     0.67563019     1.5718364      188.56756      107.58664      182.14647     -145.34804      247.47309      5.8359946      25.429912      60.722865     -52.693239      3695269.3    
   1838000   299.96273      0.89412977     0.67647317     1.5706029      188.63561      107.54343      182.15382      49.289302      421.79741     -37.155688     -74.669504     -65.916261     -235.30165      3695267.3    
   1839000   300.3222       0.89520127     0.6771627      1.572364       188.64862      107.50451      181.97896     -104.04972      218.54085      99.891796     -77.826511      85.967236     -99.353263      3690638.4    
   1840000   300.15091      0.8946907      0.67669658     1.5713873      188.61753      107.54941      182.05557      140.69191      51.892491     -11.729578      28.538353      121.63374     -4.9199047      3693125.3    
   1841000   300.07339      0.89445963     0.67650057     1.5709602      188.60983      107.5069       182.08454     -12.364158      186.92147     -109.92628     -74.431055      3.6501848     -155.26987      3692102.3    
   1842000   299.73903      0.89346297     0.67761058     1.5710735      188.59718      107.56247      182.10399     -273.27719     -67.685769      142.35468      56.552701     -183.75982     -42.414573      3694157.9    
   1843000   299.99132      0.89421498     0.67842555     1.5726405      188.63523      107.50765      182.11574     -5.1412518      309.01594     -38.957085     -138.97233     -148.49775     -4.0366757      3693257.9    
   1844000   299.24562      0.89199219     0.67655045     1.5685426      188.75963      107.50868      182.14702     -292.37716     -7.892838      -91.051085      12.362436      61.274154     -37.48312       3696363.9    
   1845000   299.56057      0.89293101     0.67696197     1.569893       188.71633      107.56171      182.14324      139.62908      212.27557     -20.920994     -146.80547     -72.468188      35.463603      3697262.2    
   1846000   300.61398      0.89607102     0.67695116     1.5730222      188.57811      107.58368      182.06282     -298.33745     -124.71929      62.850896      232.7299      -24.977522     -10.857378      3693677.2    
   1847000   299.75581      0.89351299     0.67395066     1.5674636      188.55736      107.58505      182.03123     -50.900455     -19.78483       89.96899      -35.953062     -57.676707     -49.437986      3692676.9    
   1848000   299.78087      0.89358768     0.67533315     1.5689208      188.69044      107.55947      182.18822     -183.38988     -205.90757      54.174275     -108.33375     -125.20474     -61.045469      3697590.6    
   1849000   300.66103      0.89621127     0.67631324     1.5725245      188.65863      107.55065      182.12037     -245.81718      118.35729     -57.530657     -107.29747     -58.072752     -136.31265      3695287.7    
   1850000   299.55067      0.89290149     0.67827863     1.5711801      188.61201      107.50516      182.22816      163.55967      197.76011     -142.50249      210.30337     -16.693304     -108.16981      3694997.4    
   1851000   300.31573      0.89518197     0.67660494     1.5717869      188.64164      107.49173      182.10702     -149.99141      300.49402      96.268971      49.643368      13.429136     -123.40805      3692660.1    
   1852000   299.41947      0.89251043     0.67780567     1.5703161      188.65979      107.56501      182.05864     -180.99093     -26.889688      60.721938     -107.58317      76.274316      37.099115      3694550.9    
   1853000   299.45461      0.89261516     0.67691596     1.5695311      188.6105       107.57871      182.08346     -202.37383     -361.06842     -19.198583      41.78268      -70.952949      15.872153      3694559.7    
   1854000   299.87877      0.89387948     0.67750319     1.5713827      188.64264      107.54748      182.21476      106.63378      20.293303      0.043239131   -73.284998     -38.518143      143.56901      3696780.5    
   1855000   299.6698       0.89325661     0.67864212     1.5718987      188.57759      107.60917      182.21099     -19.31773       21.301767     -11.619527     -138.37866      36.341195      42.613054      3697549      
   1856000   300.0057       0.89425784     0.67650755     1.5707654      188.59147      107.57979      182.11315     -433.57438     -69.433532      8.8597397      110.43382      30.493677      98.951046      3694826.4    
   1857000   300.07989      0.89447899     0.67602497     1.570504       188.74503      107.54522      182.13688     -239.79779     -170.29317      27.647586      37.88903      -24.600153     -10.89217       3697128.5    
   1858000   300.31508      0.89518006     0.67856822     1.5737483      188.62422      107.59114      182.12846     -274.45611     -500.31476     -59.812502      137.42895      119.83224     -122.44573      3696168.6    
   1859000   299.6144       0.89309146     0.67537525     1.5684667      188.58153      107.56168      182.15732      90.293721      22.54133       117.16905     -43.835276     -238.91436     -12.857969      3694905.6    
   1860000   300.53585      0.89583813     0.67575394     1.5715921      188.59537      107.55176      182.06854     -33.792669     -210.51127      28.502408     -121.05636      21.289142     -111.14193      3693035.3    
   1861000   300.58476      0.89598392     0.67661308     1.572597       188.66234      107.55541      182.09254     -26.825931     -88.005614     -38.418617      117.19821     -23.894285     -76.459694      3694959      
   1862000   300.33978      0.89525369     0.67758813     1.5728418      188.60945      107.55485      182.21228     -179.3836       135.22651     -67.041081     -50.331701      115.72977      15.486631      3696333.1    
   1863000   300.20377      0.89484825     0.67770534     1.5725536      188.69339      107.51795      182.12746      67.599016      111.1061      -191.94979      27.16301       91.399533     -38.361746      3694988.5    
   1864000   300.06903      0.89444663     0.6753025      1.5697491      188.59236      107.56483      182.21192      236.66052      22.872363     -48.992497     -74.902158     -27.432401     -22.168013      3696333.7    
   1865000   299.61422      0.89309092     0.67628917     1.5693801      188.5485       107.52828      182.0974      -175.59916      216.72772      109.3153       205.72541     -14.912112     -0.72465153     3691896.7    
   1866000   299.30596      0.89217207     0.67514392     1.567316       188.59447      107.53466      182.0438       16.326209      19.749033      193.28294      256.45938     -16.824081     -111.66335      3691928.5    
   1867000   300.37831      0.89536851     0.67588532     1.5712538      188.56782      107.52206      182.09192      155.74017     -17.034224      35.997865     -151.57765     -8.741736       56.059104      3691950.3    
   1868000   300.12877      0.89462468     0.67483273     1.5694574      188.58848      107.55376      182.20024      50.739737     -341.33174     -94.206735     -175.92685      0.31228972    -4.0600255      3695640.1    
   1869000   300.43408      0.89553477     0.67673791     1.5722727      188.63989      107.56509      182.04156     -259.8819       229.22687     -86.613555     -32.028021     -93.620796      5.6053427      3693817.4    
   1870000   300.29299      0.8951142      0.67784012     1.5729543      188.66685      107.55075      182.08437     -329.29379      136.31819      80.255941      294.93218      76.089668     -22.578853      3694721.5    
   1871000   300.6319       0.89612443     0.67728056     1.573405       188.61686      107.55472      182.08963     -163.8957      -153.67704      79.61828       102.97114      104.01321     -21.351122      3693985.6    
   1872000   299.62473      0.89312226     0.67895095     1.5720732      188.59697      107.60981      182.18823     -11.074569      173.71438      7.7454413     -2.6349987     -62.867014      20.34153       3697489.1    
   1873000   300.03595      0.89434801     0.67801671     1.5723647      188.58499      107.5796       182.21928     -149.86426     -5.7034319     -20.068321      171.45718     -30.127686     -32.153887      3696846.2    
   1874000   299.98758      0.89420384     0.67766938     1.5718732      188.62842      107.55825      182.11677     -129.86359     -14.863565     -46.27507      -72.082288     -0.61732628     56.275228      3694883.7    
   1875000   299.32809      0.89223803     0.67714459     1.5693826      188.61219      107.55577      182.08886      85.867037     -432.38243      85.657154     -17.522546     -11.752478     -95.416361      3693914.5    
   1876000   299.96997      0.89415136     0.67628133     1.5704327      188.68082      107.53614      182.05051      81.506259     -222.69468      33.76829      -94.121531      40.739772     -32.841325      3693806.1    
   1877000   300.10954      0.89456737     0.67881059     1.573378       188.63759      107.57015      182.19357      334.48024     -40.226623      49.351944     -60.036475      123.30244      63.084115      3697030.7    
   1878000   300.60767      0.89605219     0.67703158     1.5730838      188.62916      107.58979      182.23403     -137.39776      35.577372     -113.45005     -7.4231509     -66.176187     -171.47882      3698361.6    
   1879000   300.68351      0.89627826     0.67722252     1.5735008      188.70534      107.56075      182.16584      155.76427     -51.386008     -85.034481     -124.98087     -12.042534     -65.841423      3697472.5    
   1880000   299.82819      0.89372873     0.6766896      1.5704183      188.73239      107.54875      182.04971      76.825796      250.30391      114.00115      6.0265311      30.395847      28.233328      3695232.9    
   1881000   300.12263      0.8946064      0.67584449     1.5704509      188.60196      107.52419      181.98693      106.2336       442.81405      167.851       -23.696423      13.425545      53.476403      3690562.7    
   1882000   299.75019      0.89349621     0.67985891     1.5733551      188.6463       107.513        182.13037      66.60459       2.094621      -42.513956     -69.142714     -17.003584      98.568394      3693955.3    
   1883000   299.35248      0.89231073     0.67777393     1.5700847      188.58674      107.54835      182.20567      154.83457      256.09443     -203.06416      10.553931      53.394827      26.277734      3695530.4    
   1884000   300.20043      0.8948383      0.6775403      1.5723786      188.72638      107.52259      182.26621     -278.40727     -74.104852     -143.6241      -33.684451      77.628852     -67.694377      3698609.6    
   1885000   300.37125      0.89534748     0.67789152     1.573239       188.68412      107.52664      182.07093     -208.5185      -4.4786522      48.691311     -36.846367      33.082325      43.396179      3693958.6    
   1886000   300.56577      0.8959273      0.67666043     1.5725877      188.71582      107.54356      182.17613     -408.44642      238.13163     -102.28082      79.940879     -98.552883     -131.75553      3697295.7    
   1887000   300.03847      0.89435552     0.67764809     1.5720036      188.6532       107.52669      182.19163     -134.37817      35.17979      -137.7767       162.49942     -71.57124       45.550878      3695803.6    
   1888000   300.12969      0.89462744     0.67766502     1.5722925      188.69557      107.59881      182.18818     -45.115606      197.03438     -69.386984      117.43486      69.292247     -72.121634      3699042.9    
   1889000   300.56148      0.89591451     0.67846549     1.57438        188.66546      107.58063      182.0891      -378.10703      42.410407      160.36594     -122.33889     -95.411272      20.122904      3695816.6    
   1890000   299.5946       0.89303243     0.6798656      1.572898       188.64563      107.5964       182.12304     -102.02685     -107.37626     -8.9429279     -8.9142494      40.024031     -82.195163      3696659      
   1891000   299.79247      0.89362226     0.67651416     1.5701364      188.66513      107.5029       182.16933     -11.150633      386.44014      90.617373      0.74163819     96.679595     -101.48175      3694767.3    
   1892000   300.08315      0.89448871     0.68024389     1.5747326      188.64727      107.49774      182.23308     -17.086892      204.42749     -138.8275      -23.405631     -2.0880347     -27.385333      3695532.7    
   1893000   299.81635      0.89369345     0.67711281     1.5708063      188.64868      107.52717      182.12026      113.86122      266.26158      1.818309      -150.53699      36.314846      17.041203      3694283.6    
   1894000   300.52742      0.89581301     0.67859472     1.5744077      188.70734      107.49895      182.08733     -241.09077      24.529563      143.0446      -116.12971     -8.6716341     -44.49867       3693794.5    
   1895000   300.17999      0.89477737     0.67763076     1.5724081      188.67028      107.52424      182.12701      94.596826      101.66279      302.15575      207.76734      71.423335     -76.82615       3694742.8    
   1896000   300.23856      0.89495196     0.67845233     1.5734043      188.62095      107.52808      182.22449     -12.832231     -221.84076     -87.253621      33.257124      151.91372      95.508923      3695885.9    
   1897000   299.56425      0.89294197     0.67812046     1.5710624      188.60381      107.53249      182.23391      67.316989     -10.419547     -35.430662     -47.099436      5.7652978     -47.954423      3695892.9    
   1898000   300.15329      0.89469778     0.67821897     1.5729167      188.66241      107.54357      182.20458      407.06809      375.4393       35.322922      112.90261      117.68156     -78.625889      3696827.1    
   1899000   300.16173      0.89472295     0.67645594     1.5711789      188.6785       107.52569      182.12564     -1.1752062      156.87967      117.82657     -52.080162     -74.158116      7.8832418      3694925.9    
   1900000   300.40549      0.89544955     0.67559989     1.5710494      188.63713      107.5496       182.17225      302.74545      201.69116     -23.646345     -103.48598      33.872717     -101.77226      3695882.7    
   1901000   300.71844      0.89638238     0.67726152     1.5736439      188.66627      107.54497      182.12429     -48.07236       87.015708     -11.496228      59.709953     -61.099599     -9.1823545      3695321.7    
   1902000   299.44807      0.89259565     0.67830857     1.5709042      188.68996      107.60886      182.01996     -332.23936     -501.62179     -103.16638     -161.65925      3.5409421     -19.679519      3695862.7    
   1903000   299.92437      0.89401542     0.67506446     1.5690799      188.55746      107.55185      182.11268     -38.795635     -83.157097     -124.32122     -169.58164      163.17829      81.150506      3693191.3    
   1904000   299.70418      0.89335909     0.67700506     1.5703642      188.60436      107.56265      182.22745     -384.82516     -232.68185     -10.541499      72.404928      21.252304      11.912622      3696809.3    
   1905000   300.19097      0.89481011     0.67603014     1.5708403      188.59309      107.53306      182.13065      45.040882     -291.96206     -168.52457     -58.288557     -5.8406388     -38.080416      3693608.3    
   1906000   300.27652      0.89506511     0.67637449     1.5714396      188.6166       107.56397      182.0912      -51.070464     -158.67915      163.74639      230.36151      83.896536      119.4437       3694330.2    
   1907000   300.03362      0.89434107     0.67523946     1.5695805      188.59808      107.50316      182.09703      130.47719      153.27846      318.60975      57.732937     -9.9318666      52.069307      3691997.1    
   1908000   300.12157      0.89460323     0.67734049     1.5719437      188.62517      107.50136      182.11436      102.09621      17.564172     -59.951353     -57.670281      113.38533      98.59242       3692817.3    
   1909000   300.04774      0.89438316     0.67905297     1.5734361      188.71951      107.49207      182.191       -179.05757      171.1718       92.159031      108.73219      48.241921      65.63673       3695899.3    
   1910000   300.33796      0.89524825     0.67573916     1.5709874      188.74451      107.53184      182.09681      233.10369     -58.433298      25.841537     -127.29505      100.07204     -4.6334305      3695845      
   1911000   299.71042      0.89337768     0.67697736     1.570355       188.65128      107.54371      182.0676      -24.016176      186.39926     -33.121853     -9.6808915     -39.177806     -14.974301      3693834.3    
   1912000   299.87929      0.89388104     0.67564026     1.5695213      188.61552      107.50837      182.11868     -243.06836      67.235795     -110.99266     -31.708828      173.21103     -120.82585      3692956.6    
   1913000   299.99576      0.89422822     0.67712428     1.5713525      188.58552      107.5595       182.13582      201.21072      6.2103953     -1.0693693      105.16056      37.299184      80.639879      3694472.8    
   1914000   300.24255      0.89496384     0.67859764     1.5735615      188.62646      107.54874      182.06426     -607.22674     -40.844184     -247.73772     -20.97149       58.257554     -100.13513      3693453.6    
   1915000   300.10162      0.89454377     0.67781442     1.5723582      188.7151       107.51776      182.10695      155.06846      9.7784008      208.41015      77.908333      177.57984      90.844799      3694990.7    
   1916000   299.62262      0.89311596     0.67598149     1.5690974      188.65105      107.52026      182.25752      364.26201      246.40872      4.0878905     -90.032576     -9.7324531      26.160365      3696876.9    
   1917000   299.53617      0.89285826     0.67616246     1.5690207      188.6973       107.53591      182.1579       73.927185     -160.2526      -116.32971     -62.636841      81.935289     -37.568583      3696300      
   1918000   300.33848      0.89524981     0.68024025     1.5754901      188.73686      107.52011      182.2331       31.158579     -39.62452      -60.686568      58.884791      3.7566678     -39.97103       3698057.8    
   1919000   300.07434      0.89446245     0.67650336     1.5709658      188.76699      107.54828      182.08349      321.40838     -32.967816      198.26792      66.271248      72.111576     -60.645432      3696579.7    
   1920000   300.03531      0.89434612     0.67690014     1.5712463      188.73132      107.56549      182.18224      142.96407     -46.968235      144.20704     -4.6976973      71.659505     -118.6109       3698477.5    
   1921000   300.44018      0.89555295     0.67647025     1.5720232      188.6793       107.53706      182.23219      39.301736     -80.247844     -220.68748     -142.45376      83.988739     -44.385388      3697494.3    
   1922000   299.86837      0.89384848     0.6774958      1.5713443      188.68613      107.56146      182.17762     -12.138457      224.76261      185.6377       15.551147     -9.3612938      44.11499       3697359.3    
   1923000   300.51298      0.89576996     0.67880131     1.5745713      188.67691      107.56828      182.16729     -22.407318     -143.83505     -19.213756      64.199085      155.80938      3.7873094      3697203.5    
   1924000   300.25631      0.89500486     0.67686712     1.571872       188.69926      107.50025      182.13293     -224.95473     -12.394746     -15.095676     -82.34917       252.66741     -99.818316      3694606.1    
   1925000   300.24382      0.89496763     0.67521864     1.5701863      188.74116      107.51685      182.15574      405.19912      387.70287      162.13581     -111.74647      118.52005     -5.2855203      3696460.1    
   1926000   299.84329      0.89377373     0.67605804     1.5698318      188.69425      107.52417      182.23095     -187.7204       16.193784     -76.249042     -141.61394      0.91565906     21.455963      3697318.9    
   1927000   300.34427      0.89526705     0.67602435     1.5712914      188.72732      107.52279      182.2403      -164.27544     -16.579665     -240.72167      99.29823       146.37856      31.407247      3698109.2    
   1928000   299.99459      0.89422474     0.6790673      1.573292       188.68453      107.5174       182.2074      -90.509266     -422.25342      64.752192     -12.032972      183.91742      20.498362      3696417.9    
   1929000   299.32174      0.89221909     0.67472052     1.5669396      188.69372      107.53109      182.11211     -251.74125      41.430901      80.957368     -22.562831      71.131761      140.38346      3695135.2    
   1930000   299.15758      0.89172976     0.67628257     1.5680123      188.66644      107.50721      182.1307       61.69252       201.69952      41.137034      152.15396      26.970607     -46.472142      3694157.7    
   1931000   299.94791      0.8940856      0.67980613     1.5738917      188.62475      107.59087      182.0961       6.5962594     -380.17571      47.083584     -51.02456       1.9462023      105.23034      3695513.1    
   1932000   300.19803      0.89483116     0.67681837     1.5716495      188.7387       107.58165      182.20457      117.6997      -200.0868       171.90982     -104.57123      178.5674       51.797511      3699631.3    
   1933000   300.51087      0.89576365     0.67548202     1.5712457      188.6825       107.52629      182.07934     -55.101655      305.24318      68.215554      15.305365      84.212933     -20.148157      3694085.6    
   1934000   300.08757      0.89450188     0.67563158     1.5701335      188.65397      107.50555      182.19231      163.349        2.6135692     -43.745121     -131.51797      43.758196      224.95917      3695105.9    
   1935000   300.16014      0.8947182      0.67848624     1.5732044      188.73531      107.52841      182.14061     -112.11541     -350.33851      45.18238       42.162268      34.784682     -143.4478       3696435.9    
   1936000   300.2333       0.89493629     0.67850378     1.5734401      188.81848      107.51127      182.13654      74.76782       106.48297      95.416547      217.62674     -12.752649     -99.068353      3697392.7    
   1937000   299.46349      0.89264163     0.67899255     1.5716342      188.68872      107.54946      182.21512      182.37508      396.78059      91.713993     -31.798335      106.45263      99.191467      3697758.6    
   1938000   299.81781      0.8936978      0.67739893     1.5710967      188.59893      107.56311      182.27442     -9.8183932      63.901531      178.96854      118.32352      154.47321      55.476816      3697671.2    
   1939000   299.59103      0.89302179     0.67704498     1.5700668      188.62431      107.54075      182.12549     -73.088289      152.70207      20.244822      170.58798      11.515019      68.084464      3694379.1    
   1940000   300.21713      0.89488809     0.67785781     1.5727459      188.7526       107.5719       182.16553     -160.25708     -22.155664      35.163727      22.174513      56.244293      110.44831      3698775.7    
   1941000   299.66499      0.89324227     0.67826408     1.5715064      188.73036      107.54689      182.22774     -14.105125      200.33588      71.090525      9.7762651      40.476966     -32.22215       3698742.8    
   1942000   299.49672      0.89274069     0.67835877     1.5710995      188.76032      107.50189      182.25308     -343.53018     -463.94985     -53.221566      31.716087      77.874332     -42.138217      3698296.4    
   1943000   299.84818      0.89378832     0.67822919     1.5720175      188.72539      107.58848      182.16703     -4.6239642      270.20686     -20.46047      -52.058704      243.71058      102.33657      3698842.9    
   1944000   299.1266       0.89163743     0.67798746     1.5696249      188.84683      107.61838      182.19182     -125.9668      -246.21723     -144.76719     -95.546838      85.663586     -28.663994      3702755.5    
   1945000   300.28389      0.89508709     0.67736635     1.5724534      188.70557      107.53247      182.20307      162.07834     -31.646046     -44.266546     -51.029448     -76.792169     -104.0888       3697260.3    
   1946000   300.15384      0.89469944     0.6788606      1.57356        188.63125      107.56044      182.1642       273.17218      83.84989       68.187303     -212.79165     -2.6373417     -56.519266      3695976.9    
   1947000   300.05366      0.89440082     0.6766775      1.5710783      188.70435      107.5501       182.07842      210.62297     -230.97115      102.32098     -104.38473      173.88629     -15.399434      3695313      
   1948000   299.83447      0.89374745     0.677654       1.5714015      188.7764       107.51642      182.22414      215.57118      282.11068      81.237546     -37.570076      228.41031      51.773693      3698523.6    
   1949000   300.47025      0.8956426      0.67658847     1.5722311      188.6386       107.52514      182.242        42.503591      550.75099     -45.696385     -54.632187      62.70431      -20.024757      3696485.9    
   1950000   299.97999      0.89418123     0.67791748     1.5720987      188.67657      107.5129       182.2316       307.74433      179.58721      98.766023     -10.919931      24.491696     -44.995071      3696598      
   1951000   300.28282      0.8950839      0.67837908     1.573463       188.7352       107.58232      182.09649     -248.61101     -196.08702     -9.976314       179.03336     -69.190472     -26.932897      3697391.2    
   1952000   300.59125      0.89600326     0.67689647     1.5728997      188.70728      107.55261      182.16956      231.45801      65.15917      -126.1392      -142.58693      205.62        -46.367573      3697306.3    
   1953000   300.36258      0.89532165     0.67920823     1.5745299      188.83832      107.49994      182.11848      61.322772     -86.877341     -119.5198      -13.038374      114.96186      93.988357      3697024.8    
   1954000   300.39957      0.89543188     0.67747681     1.5729087      188.73592      107.53357      182.12276     -185.42157      150.00207      141.29469      243.47538      115.85493     -45.989825      3696263      
   1955000   299.75049      0.89349711     0.67816128     1.5716584      188.6839       107.57838      182.2264       381.60286     -369.19499      100.14108      159.69164      180.26712     -1.8415463      3698887.8    
   1956000   299.91899      0.89399939     0.67671554     1.5707149      188.66295      107.55055      182.25089      95.13531      -152.74464     -143.55223     -116.015        157.53571     -58.422382      3698017      
   1957000   299.79294      0.89362366     0.67756788     1.5711915      188.69888      107.53843      182.21299     -467.53309     -212.99896     -196.77913     -71.072733      100.93214     -2.0062713      3697535.4    
   1958000   299.71728      0.89339812     0.67627022     1.5696683      188.71467      107.54079      182.1996       15.42123      -21.146778     -21.690957      40.292992      91.852266     -115.67715      3697654.4    
   1959000   300.13435      0.89464133     0.67727122     1.5719126      188.72554      107.53702      182.1067      -0.39780975     27.915206     -169.16209     -120.06405     -69.894427     -70.352088      3695852      
   1960000   300.85241      0.89678172     0.67860428     1.575386       188.69849      107.5622       182.19804      183.19177      203.9687       45.336182     -77.503758     -22.468402     -54.203962      3698041.6    
   1961000   300.03236      0.89433731     0.67785169     1.572189       188.76812      107.54947      182.16391      26.952462     -270.82714      30.42561      -24.452921      56.733659     -15.057551      3698275.4    
   1962000   300.41332      0.89547288     0.67889331     1.5743662      188.75585      107.53715      182.17464     -217.75063      82.278313      8.7044872      246.56827      187.21942      77.26605       3697829.1    
   1963000   300.15114      0.89469137     0.67650137     1.5711927      188.71661      107.52168      182.12772     -56.986204     -114.83073     -153.09777      19.853214      160.3666       139.22404      3695576.7    
   1964000   300.12893      0.89462519     0.67771776     1.5723429      188.65742      107.52473      182.2          57.143336      57.31089       95.071706     -1.6162234      18.546195      65.300492      3695988.7    
   1965000   300.07328      0.89445929     0.67879185     1.5732511      188.66982      107.50642      182.26922      54.642993      14.035414      47.670291      10.09124       60.317969     -62.039492      3697006      
   1966000   300.24539      0.89497232     0.67987878     1.5748511      188.69756      107.53298      182.18156      238.70194     -134.23313      182.33301      52.34101       58.409829      150.96689      3696684.6    
   1967000   300.15997      0.8947177      0.67940773     1.5741254      188.70206      107.5258       182.11783     -119.27839      143.11967      130.82292     -57.551731      147.38097     -22.25642       3695232.5    
   1968000   299.38245      0.89240006     0.67940152     1.5718016      188.73928      107.51851      182.23909     -182.73425      293.98288     -148.52131      24.988096      192.65133     -9.9727798      3698171.7    
   1969000   300.44166      0.89555737     0.67747094     1.5730283      188.73802      107.53312      182.22498     -270.47179     -170.74769     -70.20287       81.39527       132.2671      -39.01682       3698363.1    
   1970000   300.79313      0.89660502     0.6782086      1.5748136      188.71845      107.58411      182.24317      92.631636      186.00887      60.938515      123.00094      177.60702     -17.455448      3700102.3    
   1971000   300.13566      0.89464524     0.6780527      1.5726979      188.82178      107.51106      182.12452      23.853952     -0.16870325    -83.437104     -99.161746      233.81251      44.245544      3697205.8    
   1972000   300.11293      0.89457747     0.6780125      1.57259        188.67994      107.54899      182.26301      40.829702     -384.97389     -22.084031     -38.614282      70.616952     -35.584547      3698542.4    
   1973000   299.94613      0.89408029     0.67775013     1.5718304      188.7344       107.53435      182.20684      290.54952     -67.448515      37.661855      131.291        136.21574     -58.346629      3697966.2    
   1974000   299.90822      0.89396729     0.67823235     1.5721996      188.8204       107.55854      182.20648      396.43071     -205.42629      133.21064     -20.915953      16.145439     -161.2297       3700476.5    
   1975000   299.90642      0.89396191     0.67861269     1.5725746      188.73124      107.58387      182.32048      31.799318      210.1323       10.765443      202.63251      122.93555     -40.751201      3701914.9    
   1976000   299.98949      0.89420954     0.67562247     1.569832       188.71287      107.50703      182.18797      102.11011     -231.42509     -118.25125      238.7387       233.69819      14.963499      3696222.3    
   1977000   300.68279      0.89627612     0.67804951     1.5743256      188.65887      107.5905       182.17014      167.51434     -158.93259     -0.39096769     211.57622      33.966201      52.666274      3697671.8    
   1978000   299.6976       0.89333948     0.67816904     1.5715085      188.74284      107.53663      182.22563      121.78109     -165.04714     -4.7845317      101.08485      83.516619     -23.689021      3698591.5    
   1979000   299.38712      0.892414       0.67848858     1.5709026      188.76164      107.5153       182.2453       226.65098      343.14125     -202.38266     -55.883379      6.8603258      12.048053      3698625.4    
   1980000   299.3295       0.89224223     0.67652748     1.5687697      188.69162      107.529        182.25137      157.22199     -139.73998     -97.693002      205.87984      58.39613       77.000333      3697847.7    
   1981000   300.12786      0.89462198     0.68066404     1.575286       188.6657       107.54728      182.1782       197.85104      53.922606      62.745827     -59.755067      141.0907       127.96515      3696483.6    
   1982000   299.72796      0.89342995     0.67975656     1.5731865      188.68776      107.52258      182.18679     -30.944407      359.3797       178.66637     -72.374987      36.744754      76.331849      3696241.1    
   1983000   299.798        0.89363875     0.6806366      1.5742753      188.72348      107.55678      182.22755      271.75763      318.36275      110.34547     -308.24518      71.340502     -43.772665      3698944.2    
   1984000   300.55034      0.8958813      0.6756904      1.5715717      188.82748      107.51158      182.12513     -137.18344     -2.6044696      40.111932      15.952018      136.10894      45.032635      3697347.7    
   1985000   299.68522      0.89330257     0.67814911     1.5714517      188.73007      107.52136      182.19813     -345.55659     -17.347382     -214.96706     -76.731918      126.21231     -48.70645       3697258.4    
   1986000   300.47742      0.89566396     0.67631842     1.5719824      188.73906      107.51577      182.13313      113.81271     -110.75879      51.011077     -214.28869      145.86438      51.945901      3695923      
   1987000   300.27018      0.89504622     0.67863181     1.573678       188.72948      107.51417      182.29217      44.787627      25.742337     -131.01686      236.78009      160.24184      0.042088442    3698907.4    
   1988000   299.35207      0.89230951     0.67562857     1.5679381      188.75205      107.4786       182.20801     -8.2005331      106.66731     -117.5055       29.34653       149.39562      74.990561      3696418.7    
   1989000   300.30705      0.89515611     0.67861246     1.5737686      188.79603      107.54581      182.14335      43.183719      92.712313      133.91732     -197.08309      184.52477     -92.69484       3698279.2    
   1990000   300.40748      0.89545548     0.67637496     1.5718304      188.81409      107.49134      182.14218     -87.935177     -145.14261     -14.392539     -214.57959      101.90739     -41.958231      3696735.9    
   1991000   299.82788      0.89372779     0.67851854     1.5722463      188.78393      107.49316      182.29438     -94.954664      61.638527     -173.85417     -97.383053      140.75078      136.35814      3699296.4    
   1992000   299.68596      0.89330478     0.67825997     1.5715647      188.78278      107.47199      182.27647     -262.73784      191.59325     -181.07187      86.269869      59.851569     -101.15701      3698182      
   1993000   299.25172      0.89201039     0.67893682     1.5709472      188.74534      107.49145      182.28495     -39.526128     -152.60118     -169.26633     -206.01446     -1.2912601     -29.35887       3698289.8    
   1994000   300.28673      0.89509553     0.67766545     1.572761       188.73529      107.53214      182.21113      105.64267     -15.570598     -170.2252       176.64521      135.54062      121.30455      3697994.9    
   1995000   300.10335      0.89454892     0.67965348     1.5742024      188.75924      107.57482      182.26429      265.16874     -309.77997      1.8386053      163.24546      232.05846      164.50148      3701011.5    
   1996000   299.89212      0.8939193      0.67955567     1.573475       188.73582      107.52335      182.26724      66.349594      97.944622      112.31119      92.248336      37.698301     -18.335145      3698841.7    
   1997000   300.06304      0.89442878     0.67881543     1.5732442      188.72931      107.54822      182.17667      340.52214      155.63961      264.70906     -152.02735      262.70811     -39.306115      3697731.2    
   1998000   299.56052      0.89293085     0.67710578     1.5700366      188.81159      107.54862      182.19451     -96.02562      -437.75598     -99.966428      13.155791      23.513677      135.59003      3699719.3    
   1999000   300.53962      0.89584935     0.67666177     1.5725111      188.79014      107.50561      182.27801      169.85201     -287.99971     -134.46373     -277.34686      49.447492     -57.624241      3699514.6    
   2000000   299.80848      0.89366999     0.67888268     1.5725527      188.68015      107.50864      182.35526      398.21565     -4.8356928     -96.793906     -52.570643      250.40939      153.50547      3699030.1    
   2001000   300.09095      0.89451195     0.67805464     1.5725666      188.694        107.56873      182.23015     -57.801114     -166.9139       17.822476     -51.68561       176.90687      15.388887      3698829.8    
   2002000   300.37638      0.89536277     0.67807914     1.5734419      188.77178      107.5287       182.22689      153.04766     -131.05182     -67.537736      4.7215494      184.11358     -156.99704      3698911.5    
   2003000   300.80269      0.89663352     0.67690232     1.5735358      188.81586      107.51208      182.14241      355.74911      196.19488      223.61444     -86.732516      288.76645      99.729354      3697488.6    
   2004000   299.98325      0.89419092     0.6794931      1.573684       188.74518      107.52112      182.18945     -178.89476      25.11653       122.57895      162.86471      221.28032      67.26425       3697369.5    
   2005000   300.15129      0.89469184     0.67865691     1.5733487      188.77739      107.49014      182.32726     -321.65838      662.87677     -63.719699     -0.86943654     173.00194     -18.689047      3699731.3    
   2006000   299.71543      0.89339261     0.67836634     1.5717589      188.74116      107.52649      182.2434       78.129568      20.203197     -32.706277     -21.079018      139.83119      66.082918      3698570.5    
   2007000   300.27405      0.89505775     0.67933079     1.5743885      188.69021      107.54695      182.262       -61.152536      164.82247      0.5456975     -94.570484      89.49418      -1.2952208      3698652.9    
   2008000   299.56968      0.89295817     0.67694699     1.5699052      188.7864       107.50735      182.15904      431.65942      314.94799      14.370931      6.7189676      75.372492     -15.386285      3697086.3    
   2009000   299.54211      0.89287599     0.67938058     1.5722566      188.75862      107.53126      182.22583     -163.69743      255.39586     -189.62988      5.5580687      205.62879     -4.233391       3698720      
   2010000   299.88544      0.89389936     0.67911279     1.5730122      188.94106      107.47936      182.31824     -20.879825      229.15459     -92.587375     -150.697        15.201221      2.4299337      3702384.6    
   2011000   298.88815      0.89092666     0.67860551     1.5695322      188.87089      107.53282      182.24449     -213.04279      65.650788     -61.047948     -129.00457      175.84187      16.759167      3701352.7    
   2012000   300.0415       0.89436457     0.67873159     1.5730962      188.8239       107.50998      182.2691      -172.95922      168.43196      181.93555     -70.75062       130.43869      35.026062      3700145.6    
   2013000   299.40443      0.89246558     0.67766817     1.5701338      188.824        107.54623      182.22818     -380.5003      -243.55029      18.811524     -39.993303      66.116341      109.85136      3700563.8    
   2014000   300.02928      0.89432814     0.67915514     1.5734833      188.75978      107.54038      182.28571     -255.33006     -70.147581     -32.066559      152.1605       150.40151     -11.110467      3700272.2    
   2015000   301.00258      0.89722936     0.67900558     1.5762349      188.69304      107.52794      182.3506      -87.086589      129.13238     -52.025358      190.89183      157.24305     -56.698271      3699852.3    
   2016000   300.36289      0.89532255     0.68030679     1.5756293      188.77945      107.53282      182.39482     -84.338539     -310.98882     -150.34214     -64.829436      120.03257     -57.746977      3702612.3    
   2017000   299.58289      0.89299753     0.679683       1.5726805      188.86082      107.50816      182.25002     -37.069966      130.63246      110.14992     -216.51387      67.503815     -59.155596      3700418.8    
   2018000   299.877        0.89387422     0.67835631     1.5722305      188.82322      107.52768      182.20043      40.054113     -64.603235     -3.309863       123.48449      110.53987      151.05204      3699347.1    
   2019000   299.87721      0.89387485     0.6787197      1.5725945      188.71855      107.55183      182.30718     -154.14982      246.20003     -76.98241      -127.35613      53.792879     -64.617476      3700293.4    
   2020000   300.52691      0.89581146     0.67712539     1.5729368      188.77431      107.55235      182.3218      -164.73466     -65.8507       -7.1025985     -28.988056     -5.9343372      96.3791        3701701.6    
   2021000   300.41197      0.89546885     0.67904289     1.5745117      188.82443      107.53613      182.27968     -391.20826     -158.02378     -103.41576      132.16193      252.43051      154.51345      3701270.7    
   2022000   299.59114      0.89302214     0.67707285     1.570095       188.81621      107.52986      182.20236     -262.57448     -102.01176     -121.0719      -247.84518      72.039395     -92.320419      3699323.7    
   2023000   300.51259      0.89576879     0.67874885     1.5745176      188.69255      107.56221      182.29455      296.78099      110.85166      57.24432      -161.33547      214.17024      40.74449       3699884.2    
   2024000   300.26149      0.89502032     0.67887064     1.573891       188.68212      107.51342      182.32993      110.27626      33.958371      101.19694     -154.26006      266.9898      -58.455889      3698719.4    
   2025000   299.23453      0.89195915     0.67783578     1.5697949      188.77943      107.48587      182.39795      163.4578       163.61926     -63.532555      95.477567      154.08604      113.49104      3701059      
   2026000   300.13965      0.89465712     0.67969481     1.5743519      188.80344      107.52727      182.32107      81.078004     -230.45236     -230.28744     -12.143466      199.13591      4.9234504      3701394.6    
   2027000   299.94651      0.89408142     0.67851105     1.5725925      188.87319      107.51653      182.24313     -114.59094      12.454339      79.980272      134.07198      62.696827     -6.3867113      3700809.6    
   2028000   299.91029      0.89397346     0.67675109     1.5707246      188.77837      107.50332      182.26305     -204.36761     -80.184218      89.676617     -39.273954      102.61211      61.460653      3698901.3    
   2029000   299.87252      0.89386086     0.67750858     1.5713694      188.7555       107.4892       182.21379      18.53181       448.08117     -66.866907      17.303712      220.59789      141.57387      3696968.1    
   2030000   299.8487       0.89378987     0.67897931     1.5727692      188.73763      107.53457      182.24578      216.68726     -21.066005     -28.682021      280.83871      181.07533     -13.558923      3698827.5    
   2031000   300.48428      0.8956844      0.68041161     1.576096       188.82597      107.55268      182.30185     -7.819794      -551.53857     -68.509973      86.143056      284.30111      43.552004      3702320.7    
   2032000   300.05938      0.89441786     0.67690217     1.57132        188.83793      107.49691      182.19846      15.87011      -150.60161     -34.510494     -4.6514657      13.194144     -65.98028       3698536.5    
   2033000   300.011        0.89427364     0.68136302     1.5756367      188.74457      107.53384      182.31913      272.98749      200.86078      32.246183     -39.130627      171.14735      15.550754      3700427      
   2034000   299.55235      0.89290651     0.67670724     1.5696138      188.74904      107.58476      182.25803     -101.6499      -53.758486     -183.95863      11.364983      217.03974     -206.33258      3701026.4    
   2035000   300.33448      0.89523788     0.67716716     1.572405       188.78024      107.53173      182.20231     -14.100825     -190.07656     -5.9994085     -268.06078      14.425716     -116.25671      3698682.6    
   2036000   300.04678      0.8943803      0.67819372     1.572574       188.78058      107.53165      182.30359     -77.424279      217.64366      162.4232      -21.056895      271.10123     -139.68423      3700742.1    
   2037000   300.55506      0.89589539     0.67715746     1.5730528      188.88206      107.5438       182.29678     -245.71542     -148.55162     -179.11803     -89.375984      137.99911      33.527411      3703011.8    
   2038000   299.82706      0.89372535     0.68006666     1.573792       188.82154      107.5546       182.16115      383.35093     -257.44461      0.71696451    -137.18516      226.66363     -142.10808      3699442.4    
   2039000   299.87857      0.8938789      0.67858027     1.5724592      188.79395      107.51705      182.33514      180.68265      175.79964      63.940758     -182.92958      125.87021      68.356379      3701142.5    
   2040000   300.72949      0.89641533     0.67801194     1.5744273      188.81974      107.54717      182.30175      194.20011     -78.83666      -16.771588      45.822568      272.97896      110.16961      3702006.9    
   2041000   299.98594      0.89419895     0.67849582     1.5726948      188.76264      107.59616      182.32244      346.58654      201.30429      85.385198      106.07708      85.903765     -13.231745      3702993.4    
   2042000   299.64605      0.89318581     0.67915601     1.5723418      188.80945      107.52403      182.28039     -24.665308     -38.963878      274.05035     -10.324939      131.44865      120.59334      3700575.2    
   2043000   300.145        0.89467306     0.68025543     1.5749285      188.89207      107.53207      182.25315      55.562655     -32.010105      50.189592     -49.011916      125.23082      21.978639      3701917.8    
   2044000   300.59256      0.89600717     0.68062585     1.576633       188.86916      107.52042      182.27504     -191.38804      60.248333     -61.081239      70.684573      197.1541      -5.8914642      3701512.2    
   2045000   299.57666      0.89297898     0.68018067     1.5731596      188.85661      107.4839       182.27128      66.063692      131.52503      138.56288      219.7322       111.51707      2.2476567      3699933.1    
   2046000   300.01804      0.89429462     0.67729411     1.5715887      188.77828      107.48799      182.25414     -61.896564      106.52207     -129.88318     -92.739703      75.99497       18.546945      3698191.2    
   2047000   300.18248      0.89478479     0.67882014     1.5736049      188.86779      107.54072      182.29009      173.92144     -14.324644      111.4762       17.198447      0.42706333     140.15561      3702490.3    
   2048000   299.71512      0.89339169     0.68036613     1.5737578      188.8846       107.53238      182.33668      77.618175     -39.348        -2.8638397      9.4245601      172.39035      1.1763753      3703478.8    
   2049000   300.13792      0.89465196     0.67904683     1.5736988      188.87024      107.53047      182.31343     -138.74996     -290.37173      15.352142     -189.06277      210.83922      96.70785       3702658.9    
   2050000   299.49696      0.8927414      0.67907051     1.5718119      188.78849      107.53952      182.29474     -248.40643     -283.69281     -14.812462     -27.118754      116.24832      116.47637      3700988.7    
   2051000   300.04598      0.89437791     0.67861429     1.5729922      188.72823      107.50628      182.39506     -189.38997     -20.712687     -89.172239      19.756933      258.31224      45.994865      3700699.1    
   2052000   299.37421      0.89237551     0.68048571     1.5728612      188.77506      107.51095      182.27801     -14.724802      175.75449      43.941402     -40.611378      279.07605      102.50211      3699402.3    
   2053000   300.21253      0.89487437     0.67875812     1.5736325      188.81746      107.54147      182.26137      47.581589      149.48981      215.60885     -124.06705      190.42527     -86.345972      3700946      
   2054000   299.8896       0.89391177     0.68233726     1.576249       188.93781      107.5149       182.42041     -39.643655      80.926443     -31.523984      18.218412      114.81647     -13.173011      3705620.8    
   2055000   299.93038      0.89403334     0.68161625     1.5756496      188.86676      107.57007      182.3814      -172.90774     -416.82164     -162.74461     -146.64918      188.15184     -40.908396      3705335.3    
   2056000   300.03739      0.89435231     0.68076836     1.5751207      188.91378      107.52248      182.36612     -106.49966     -166.19346     -96.051491      33.300107      149.64425      79.352471      3704307.8    
   2057000   300.54508      0.89586562     0.67828165     1.5741473      188.86368      107.51887      182.23654      335.62172     -142.69086      37.819134      47.06702       231.9932      -74.686308      3700569.8    
   2058000   300.71463      0.89637104     0.67939217     1.5757632      188.73863      107.52365      182.34322      422.24181      200.1017      -268.26056      4.7520455      269.18099      9.7152838      3700448.8    
   2059000   300.07415      0.8944619      0.68079166     1.5752536      188.84572      107.54824      182.4462      -162.63776     -307.77797     -228.8247      -20.316765      187.73059      43.958506      3705487      
   2060000   299.30396      0.89216611     0.6787136      1.5708797      188.81531      107.51553      182.2542       185.25201     -45.577914      223.4396       109.36806      260.29611     -58.346219      3699865.5    
   2061000   300.79101      0.89659871     0.67904192     1.5756406      188.85405      107.53963      182.3049       118.07618      48.802882      71.044919     -173.68825      155.32174      37.610838      3702484.2    
   2062000   299.76809      0.89354959     0.67900622     1.5725558      188.80965      107.56509      182.23065      12.169246      74.883685      86.601428     -190.62824      233.90649      18.048576      3700981.8    
   2063000   299.81858      0.89370008     0.67855607     1.5722561      188.75559      107.54262      182.28223     -8.310664       43.148601      58.373568      222.70582      193.03103     -108.51525      3700196.3    
   2064000   300.12606      0.89461663     0.67791832     1.5725349      188.78591      107.52826      182.31772     -64.529313      87.263079      177.47138     -68.554483      242.61269      111.95969      3701017.1    
   2065000   299.64382      0.89317916     0.67750581     1.570685       188.76333      107.58016      182.32193      24.790717     -197.80136     -19.733244      67.41325       203.65369      171.10851      3702445.8    
   2066000   299.75231      0.89350253     0.67731128     1.5708138      188.81152      107.5378       182.32164      142.70292     -39.18941      -30.355906      296.99938      202.69721     -56.762063      3701927      
   2067000   300.26404      0.89502792     0.67743894     1.5724669      188.70006      107.54392      182.20352      169.03257     -152.39707      252.56535      112.49809      83.616239     -4.8960502      3697555      
   2068000   300.07835      0.89447441     0.68017645     1.5746509      188.83331      107.58518      182.36996     -57.260189     -45.429061      3.4839772     -107.9758       187.42352     -169.85982      3704967.2    
   2069000   299.57236      0.89296615     0.67943008     1.5723962      188.72093      107.52584      182.39187      338.10906      383.82874      81.26837      -70.275811      96.107614      42.903889      3701164.4    
   2070000   299.36833      0.89235797     0.67951856     1.5718765      188.80707      107.5759       182.31849     -264.34586     -194.89788     -269.17917     -77.90645       7.0004686      24.847569      3703087.2    
   2071000   300.44713      0.89557365     0.67938541     1.5749591      188.87739      107.54307      182.27549      149.96406      64.182634     -73.992185      1.7652848      171.37674     -17.523664      3702462.3    
   2072000   300.09471      0.89452318     0.68035391     1.5748771      188.88375      107.52226      182.30858      53.917358      144.3898      -183.64694     -34.032981      80.518933      79.083781      3702542.8    
   2073000   299.91559      0.89398926     0.67746478     1.571454       188.90648      107.51372      182.41407     -99.590201     -324.85346     -75.599333      26.183814      205.10523      128.105        3704836.7    
   2074000   299.5374       0.89286193     0.6806621      1.573524       188.83416      107.5344       182.35982     -74.182243      64.585046      63.809507      128.30311      191.58711      68.573683      3703029.2    
   2075000   300.40892      0.89545977     0.67944483     1.5749046      188.86007      107.5824       182.3163       31.996019     -34.560947     -114.26886     -52.48454       96.082812      25.58116       3704306.2    
   2076000   300.30865      0.89516089     0.67856876     1.5737297      188.81935      107.5175       182.25672      134.63422      24.81775      -4.5757087     -68.639211      255.56385      150.59702      3700063.6    
   2077000   299.82566      0.89372119     0.6783775      1.5720987      188.73801      107.6194       182.30498     -54.056973     -266.45437      1.6897512     -213.77386      75.505904      39.372927      3702955.4    
   2078000   300.75834      0.89650133     0.68007694     1.5765783      188.77758      107.56879      182.34297     -62.575083     -110.847        69.542977      130.95202      235.93096     -95.512426      3702761.7    
   2079000   299.71345      0.89338671     0.67875471     1.5721414      188.75352      107.50687      182.26793     -104.8685       30.484881      57.005833      25.099647      111.86555      22.354994      3698635.6    
   2080000   299.97265      0.89415934     0.67809612     1.5722555      188.79728      107.55185      182.32714     -31.045211      24.130424      2.3046015     -57.26604       83.252234     -154.15184      3702243      
   2081000   299.89134      0.89391696     0.68108702     1.575004       188.82661      107.51884      182.46319     -166.28707     -355.44007      22.147803     -143.03514      197.5573      -50.683875      3704444.1    
   2082000   299.80691      0.89366529     0.67898306     1.5726483      188.76999      107.54134      182.35332      51.489943     -49.772083     -30.059195     -252.28203      167.1089      -11.043359      3701877.7    
   2083000   299.78433      0.89359799     0.67677111     1.5703691      188.83034      107.51758      182.30505     -179.86604     -216.72574     -175.13916      49.968434      43.502441      97.59454       3701262.8    
   2084000   300.10734      0.8945608      0.67854283     1.5731036      188.68822      107.52512      182.21511      471.81111      185.52858      137.54676      48.04714       174.85852      50.608586      3696912.2    
   2085000   300.33285      0.89523302     0.67796248     1.5731955      188.80749      107.50947      182.26758     -59.696144      52.343725     -123.44942     -66.825127      339.01606     -50.920242      3699775.6    
   2086000   300.32784      0.89521808     0.67807149     1.5732896      188.8495       107.55756      182.19949      4.6702303      125.34832      249.65769     -163.16032      37.587475     -153.32224      3700871      
   2087000   299.6049       0.89306314     0.6814239      1.574487       188.82615      107.53007      182.37296     -52.203894      296.55164     -15.192739      139.07296      262.10436     -42.523144      3702989.7    
   2088000   300.43489      0.89553718     0.68002866     1.5755658      188.83418      107.53942      182.41555     -260.48613     -75.345952     -125.29774      88.534727      110.74323     -81.389         3704334      
   2089000   299.69633      0.89333568     0.68012865     1.5734643      188.8297       107.54151      182.25806      209.57542     -232.83667     -24.379088     -37.885401      199.77213      152.86023      3701120.3    
   2090000   300.36134      0.89531794     0.67956831     1.5748863      188.82971      107.56309      182.27787      229.95172     -171.60154     -78.905596     -130.80844      197.95031     -38.124714      3702265      
   2091000   299.9283       0.89402715     0.67820714     1.5722343      188.76468      107.5518       182.31673      145.33866      189.60064      54.527473      55.701976      281.20457     -3.0836077      3701390.9    
   2092000   300.21945      0.894895       0.68041204     1.575307       188.82785      107.52494      182.29635     -85.966533     -126.03708     -37.503694      135.65482      221.48545      108.60582      3701291.2    
   2093000   300.51157      0.89576575     0.68032558     1.5760913      188.81491      107.57239      182.23448      148.54598     -255.54685      47.58701       83.466155      157.57334     -43.901113      3701413.8    
   2094000   300.42981      0.89552204     0.67997223     1.5754943      188.86927      107.5536       182.26368     -49.128179      492.50269     -46.271656      86.966246      171.75026      2.1339054      3702426.1    
   2095000   300.07101      0.89445251     0.67949112     1.5739436      188.83505      107.53599      182.35118     -160.93923     -137.7855       27.934437     -46.437969      86.757204     -125.85691      3702925.8    
   2096000   300.08586      0.89449678     0.67785122     1.572348       188.91094      107.54851      182.28351     -32.885658     -129.51998      25.485475     -145.08048      65.46121       121.54572      3703470.5    
   2097000   299.79782      0.89363819     0.67971509     1.5733533      188.92315      107.5289       182.20203     -340.52471     -35.661667      229.85936     -33.007198      115.48251     -21.665299      3701379.6    
   2098000   300.18851      0.89480278     0.67924956     1.5740523      188.76732      107.56484      182.30611     -131.71274     -381.03757     -13.011688      129.91692      15.979864     -90.098861      3701675.8    
   2099000   300.01661      0.89429036     0.68052855     1.5748189      188.84184      107.55875      182.32493      70.995373     -126.43791      11.415542     -27.643284      263.33818      33.716916      3703309.8    
   2100000   299.3174       0.89220617     0.67815687     1.570363       188.80098      107.47726      182.24535      71.787081      115.48929      174.73571      15.361118      150.25862     -32.022842      3698088.3    
   2101000   299.52018      0.8928106      0.67810071     1.5709113      188.7336       107.49687      182.3273       35.315821      146.80041     -103.99098      16.863115      214.67683     -13.880253      3699105.9    
   2102000   300.01075      0.89427291     0.67741854     1.5716915      188.89141      107.55242      182.29515      181.06614     -89.919381      52.814861     -379.8292       65.694543     -31.742938      3703458.8    
   2103000   300.03651      0.89434968     0.67763993     1.5719896      188.86886      107.50248      182.24787      82.177967     -39.110159      91.905125     -0.9570405      60.450342      15.383322      3700337.4    
   2104000   300.16298      0.89472666     0.67802494     1.5727516      188.84994      107.498        182.12726     -234.4617       76.480974     -21.303914     -56.945768      192.1702       99.071192      3697363.9    
   2105000   299.83103      0.89373719     0.67999126     1.5737285      188.88175      107.52071      182.2486      -79.759703      304.02748      38.191416     -16.197343      135.71489      9.265228       3701232      
   2106000   300.40858      0.89545875     0.67915084     1.5746096      188.85983      107.46904      182.28129     -174.10062     -11.949972      103.16219      67.118669      264.36127      53.310949      3699687.6    
   2107000   300.10106      0.89454209     0.67832635     1.5728684      188.86664      107.484        182.21208      89.73631       117.17722     -28.050475     -94.353477      234.72034      102.70274      3698931      
   2108000   300.30151      0.89513962     0.6790264      1.574166       188.69891      107.53825      182.32164      30.192851     -31.15439       64.255576     -123.41048      89.963451     -27.390572      3699734.4    
   2109000   299.54808      0.89289379     0.67771706     1.5706109      188.85209      107.50187      182.23932      7.4411154     -21.742132     -170.41845      72.562705      81.400898      48.750789      3699813.8    
   2110000   300.23435      0.8949394      0.67858637     1.5735258      188.90249      107.48201      182.20102      87.644348      166.65115      15.344208     -43.173302      27.596327      99.017894      3699340      
   2111000   299.5797       0.89298803     0.68102073     1.5740088      188.82201      107.48413      182.24747      149.84793      89.121791      329.89433      225.41739      126.11298      169.44542      3698779.8    
   2112000   299.47017      0.89266154     0.67863079     1.5712923      188.81413      107.51772      182.21879      60.367055      360.80672      278.54361      20.092194      76.32957       11.757441      3699199.1    
   2113000   300.42508      0.89550795     0.67861974     1.5741277      188.85441      107.54335      182.2087      -59.898436     -220.15876     -102.8584       113.75371      69.618476      29.826467      3700665.3    
   2114000   300.26927      0.89504349     0.67934459     1.5743881      188.85202      107.49096      182.30854     -280.06819     -213.16994     -113.67814      119.70547      130.54571      83.11926       3700842.2    
   2115000   300.15795      0.89471167     0.67876024     1.5734719      188.75798      107.47532      182.1856       321.65305      277.51121      42.731478      132.67849      97.723531      19.065676      3695967.3    
   2116000   300.54943      0.8958786      0.68039563     1.5762742      188.87502      107.44522      182.18236     -48.229521      134.11497      254.34956     -76.785372      143.24939      2.4267801      3697157.5    
   2117000   299.86867      0.89384939     0.68033712     1.5741865      188.89547      107.50036      182.262        398.30834     -184.85033      75.014554     -164.13034      219.85682     -14.297843      3701072.7    
   2118000   300.69183      0.89630306     0.67727856     1.5735816      188.84928      107.50371      182.19548      140.11655      212.05042     -25.296302     -3.1222545      133.91314      28.102363      3698932.4    
   2119000   299.55113      0.89290288     0.67915592     1.5720588      188.82348      107.47827      182.15226      134.95799      320.07851      287.52122      61.98193       231.3921       40.455582      3696674.7    
   2120000   300.4246       0.89550651     0.67692147     1.572428       188.80083      107.50122      182.24537     -121.63761     -109.14198      256.48765      38.176129      163.17945     -2.6882828      3698910.4    
   2121000   300.04437      0.89437313     0.67990421     1.5742773      188.8726       107.53119      182.26286     -90.820477     -188.52803      23.032881      66.004278      181.1653       24.879836      3701703.1    
   2122000   299.95967      0.89412066     0.67893786     1.5730585      188.80415      107.52331      182.29167      244.97521      215.68926      79.91486      -33.644426      227.5783       54.605353      3700675.2    
   2123000   299.60136      0.89305259     0.6782218      1.5712744      188.79347      107.51828      182.28557      266.91446      230.15138     -181.32051      132.39513      123.21086     -92.891815      3700169      
   2124000   299.34951      0.89230189     0.67936774     1.5716696      188.83792      107.52654      182.15874      26.968191     -33.558783     -74.319577     -25.601032      66.720047      38.842004      3698749.1    
   2125000   300.87362      0.89684495     0.67754231     1.5743873      188.84551      107.52716      182.32169      300.35283     -135.54232      17.290047      180.48363      82.467493      60.726945      3702228.2    
   2126000   299.38266      0.8924007      0.67801799     1.5704187      188.79269      107.49834      182.27498      152.92654      177.15568     -36.85123      -181.77759      194.87995     -12.247092      3699252.7    
   2127000   299.78488      0.89359964     0.67851793     1.5721176      188.85075      107.47446      182.22381     -240.28676     -7.7512587     -13.566209      252.5789       100.91263     -15.909964      3698529.8    
   2128000   300.46174      0.89561722     0.68101841     1.5766356      188.93585      107.49066      182.26072     -62.05522       36.606933     -94.670441     -62.601737      82.177698     -11.087812      3701503.5    
   2129000   300.62224      0.89609562     0.67864653     1.5747422      188.92345      107.55665      182.1789       95.699483     -38.314514      221.20353      14.061209      171.49332     -68.211485      3701870.6    
   2130000   300.42331      0.89550266     0.67743628     1.5729389      188.80577      107.5195       182.27618     -249.68457      4.0139075     -141.46166     -85.000721      245.62134      49.988692      3700261.7    
   2131000   300.28672      0.8950955      0.67866981     1.5737653      188.83455      107.44887      182.26796     -76.591695      123.68385      49.561636      164.56976      142.83584     -53.081036      3698227.6    
   2132000   300.29883      0.8951316      0.67763155     1.5727631      188.73755      107.52569      182.28529     -55.153525      115.31335     -13.962762     -59.539363      150.07428      108.78938      3699322.6    
   2133000   299.82494      0.89371903     0.68081919     1.5745382      188.85169      107.48509      182.29118     -71.533367     -7.3167187     -309.98649     -174.91175      213.37798     -0.98433193     3700281.3    
   2134000   299.64859      0.89319339     0.67876804     1.5719614      188.77578      107.50989      182.28485     -260.62122      47.329652     -224.75523      193.82638      133.13973     -34.284199      3699519      
   2135000   299.72731      0.89342802     0.67814711     1.5715751      188.83747      107.48529      182.2112       236.52407      123.34765      65.592529     -110.26088      211.68517      95.269934      3698386.5    
   2136000   300.23006      0.89492662     0.67948341     1.57441        188.89028      107.50695      182.34558      200.69438      470.52504     -148.79386     -84.097279      50.751667     -25.338975      3702895      
   2137000   300.42686      0.89551324     0.68001058     1.5755238      188.86773      107.48879      182.32529     -70.664501      134.44311     -159.14273     -72.946593      194.19242      73.149111      3701415.4    
   2138000   300.18548      0.89479374     0.67919792     1.5739917      188.90676      107.46417      182.16682      124.339        266.25752      23.931549     -150.07997      277.86177      152.55679      3698115.6    
   2139000   300.26066      0.89501783     0.67930377     1.5743216      188.96158      107.51314      182.22946      5.7234049     -125.87198     -1.6397621     -3.1560498      141.40922     -37.864221      3702147      
   2140000   300.5249       0.89580548     0.67639393     1.5721994      188.91007      107.54257      182.30722      86.753507     -44.055038      58.431428      128.22059      169.20826      8.0964801      3703730.6    
   2141000   300.45968      0.89561108     0.68014588     1.575757       188.90716      107.50228      182.41567     -190.09457      44.507984     -98.315769     -190.11911     -1.7918363     -23.434007      3704488.2    
   2142000   300.22817      0.89492099     0.68005255     1.5749735      188.77484      107.48146      182.25463     -239.50597      91.452531      53.953147     -27.989583      217.15944     -57.030717      3697909.1    
   2143000   300.03447      0.89434362     0.67614446     1.5704881      188.83459      107.49544      182.166        78.216066      126.67182     -67.270192      32.977933      207.87524      16.507853      3697761.7    
   2144000   299.43538      0.89255783     0.68003306     1.5725909      188.85193      107.5119       182.32009     -154.79614     -139.21443      33.324378     -152.07727      55.151103     -100.35661      3701796.1    
   2145000   299.639        0.89316479     0.68159376     1.5747586      188.88405      107.50177      182.33925     -45.764564     -175.0681      -1.5586642      2.8200413      165.46465      88.353659      3702465.9    
   2146000   300.29722      0.8951268      0.68070461     1.5758314      188.85901      107.45038      182.26577     -206.97683      337.39633      35.322083      90.264735      186.02372      53.09627       3698714.2    
   2147000   299.80491      0.89365934     0.68155481     1.5752141      188.92607      107.4831       182.41614     -164.88177      142.00643      90.994534      131.30869      56.811987     -69.359753      3704207.8    
   2148000   300.4322       0.89552916     0.67977652     1.5753057      188.83935      107.50436      182.31181      108.89848      129.58503      15.33702       82.745666      88.937972      136.85378      3701121.8    
   2149000   300.58513      0.89598502     0.67911929     1.5751043      188.80045      107.5509       182.28324      43.326954     -68.608303      115.04657      225.20193      181.91428      136.79507      3701381.1    
   2150000   299.99536      0.89422702     0.67931032     1.5735373      188.85391      107.52185      182.21256      90.052716      140.60976     -36.944078     -44.578304      54.034519      40.913984      3699994.1    
   2151000   299.89793      0.89393662     0.67984168     1.5737783      188.78004      107.55398      182.26137     -51.341777     -187.22696      155.06405     -65.237171      43.522678      28.232123      3700643.1    
   2152000   300.2909       0.89510798     0.6797281      1.5748361      188.78413      107.48994      182.30486      85.595364      276.78914      93.255778      2.9355082      293.89697      31.550324      3699402.1    
   2153000   299.93956      0.8940607      0.67974103     1.5738017      188.9446       107.48761      182.21336     -300.59083     -122.50261     -50.672579      236.16778      308.35789      163.26485      3700608.2    
   2154000   300.00861      0.89426652     0.6778021      1.5720686      188.88613      107.47549      182.32461      259.5054      -13.807273      98.736783      109.26573      74.158987     -17.024447      3701304.3    
   2155000   299.70337      0.89335667     0.68047076     1.5738274      188.86473      107.53704      182.26561     -297.06627     -202.87142      174.8613      -100.17377      123.36557     -10.304058      3701806.2    
   2156000   300.25769      0.89500899     0.67991164     1.5749206      188.84365      107.48392      182.35666     -134.32493     -170.26077      71.018979     -219.55939      169.63183      18.206486      3701413      
   2157000   300.17318      0.89475707     0.67992809     1.5746852      188.90808      107.50985      182.35644     -222.08325     -189.36126     -142.16369     -121.69725      40.070456     -152.94626      3703564.1    
   2158000   300.10855      0.89456443     0.67884531     1.5734097      188.88783      107.4859       182.26121     -184.40769     -68.951877     -38.386798      85.016643      115.36805     -106.64468      3700409      
   2159000   299.98668      0.89420114     0.68050244     1.5747036      188.93138      107.4826       182.40577     -141.58294      58.452066     -36.222462     -122.79756      100.57475      127.40811      3704084.1    
   2160000   300.05992      0.89441946     0.67964374     1.5740632      188.9351       107.46375      182.38649     -42.848387      242.0107      -162.17812      125.49928      136.48519      105.65933      3703116.1    
   2161000   300.55858      0.89590588     0.68219261     1.5780985      188.83304      107.50541      182.39339      632.62301      113.39763      78.558332     -60.383805      256.89781      101.84635      3702690.6    
   2162000   299.58111      0.89299222     0.67963314     1.5726254      188.99066      107.47879      182.23409     -374.83394     -250.27854     -76.702823      31.56544       183.46204      31.110778      3701627.7    
   2163000   300.11276      0.89457697     0.68040258     1.5749796      188.95663      107.46985      182.32566      290.6785       372.30656     -0.14310389    -81.101589      246.99136      16.251795      3702512.8    
   2164000   300.53568      0.8958376      0.68050491     1.5763425      188.95312      107.46102      182.42492     -163.2293       53.868154     -112.4709       79.077974      67.312974      76.872278      3704155.4    
   2165000   300.33697      0.89524529     0.68103775     1.576283       188.93413      107.46183      182.32211      172.66972      424.69902      215.00427      65.523617      216.52577      93.641311      3701723.8    
   2166000   300.52345      0.89580116     0.67947587     1.575277       188.88945      107.47554      182.29763     -136.29296     -8.4353722      228.95622      67.251623      154.97334     -8.0119999      3700823.7    
   2167000   299.99953      0.89423946     0.67915659     1.5733961      188.9515       107.45997      182.2325       228.32916      87.729363      38.749713     -167.4091       250.7642      -10.405117      3700180.5    
   2168000   299.94866      0.89408783     0.67985281     1.5739406      188.86721      107.52166      182.29918     -142.1554       102.93079      233.36487      27.527689      228.37711     -28.490771      3702007.1    
   2169000   300.30291      0.89514378     0.67978213     1.5749259      188.87409      107.48995      182.35161     -257.57674     -165.63517      16.131882     -30.884722      239.35236     -11.98205       3702114.3    
   2170000   300.65031      0.8961793      0.67882311     1.5750024      188.88249      107.50632      182.28453      94.558705     -97.663456      310.06012     -102.07589      171.392        24.675398      3701481      
   2171000   300.27192      0.89505141     0.67890422     1.5739556      188.88863      107.50482      182.2692      -110.59343     -363.48776     -89.500057      149.31408      231.3969       120.47647      3701238.1    
   2172000   299.8263       0.89372309     0.67767239     1.5713955      188.93322      107.48154      182.29059     -13.741072     -220.5065       38.64423       88.708392      191.26917     -51.189562      3701744.6    
   2173000   299.50824      0.89277502     0.68088256     1.5736576      188.8872       107.47493      182.38458      24.083584      230.56863      96.224189      41.110658      168.1595      -126.44264      3702523.4    
   2174000   300.01259      0.89427838     0.68042329     1.5747017      188.94958      107.48745      182.26537      252.54891     -322.81774      150.22093     -34.187447      216.27908     -38.307386      3701756.5    
   2175000   299.61666      0.89309821     0.67868525     1.5717835      188.92552      107.44109      182.23431      97.483852     -162.71138     -66.528017     -221.3638       281.53747      13.268988      3699058.5    
   2176000   300.53429      0.89583348     0.6794163      1.5752498      188.93797      107.48679      182.25464     -277.28131     -118.68656     -141.7189      -1.4186364      165.85047     -92.345153      3701288.6    
   2177000   299.85923      0.89382124     0.68299651     1.5768177      188.89691      107.51836      182.32008     -287.12715     -417.67294     -154.34317     -176.34598      101.0958       73.735327      3702900      
   2178000   300.60295      0.89603813     0.67900813     1.5750463      188.86674      107.48394      182.22502      206.35426      182.37394      170.07795      29.305104      227.45281      191.94098      3699193.6    
   2179000   300.16299      0.89472669     0.67771004     1.5724367      188.87584      107.46507      182.27104      249.68144      102.40008      84.015276     -2.6028806      189.45726      35.818232      3699656.6    
   2180000   300.08075      0.89448155     0.67999769     1.5744792      189.00546      107.48197      182.29165     -164.99386      117.27384      136.10753     -66.490552      226.79176      56.143349      3703196.6    
   2181000   300.7149       0.89637184     0.67830401     1.5746758      188.9545       107.45113      182.2608       162.82209      18.895025      15.934361      145.71335      143.11351     -128.69564      3700509.2    
   2182000   299.12649      0.8916371      0.68043763     1.5720747      188.88162      107.44562      182.26219     -200.65521     -13.655856     -248.48406      94.56857       197.93382      58.358955      3698920.4    
   2183000   300.0212       0.89430404     0.67748505     1.5717891      188.94933      107.40696      182.24932     -53.317878      183.81253      10.642312     -363.15719      172.19413     -85.794359      3698653.8    
   2184000   299.4693       0.89265895     0.67922069     1.5718796      188.84472      107.46802      182.23137     -91.785572     -333.88302      76.494194     -178.55766      148.07161      91.359911      3698343.4    
   2185000   300.21594      0.89488455     0.68035626     1.5752408      188.82321      107.46934      182.28628     -72.02531       125.99995      13.922721     -70.490362      110.892        113.79095      3699081.7    
   2186000   300.35093      0.8952869      0.67874136     1.5740283      188.93519      107.50426      182.23778     -127.72688      111.6677       225.20625     -86.947521      86.411286     -28.673557      3701492.9    
   2187000   299.611        0.89308133     0.67790094     1.5709823      188.89548      107.50625      182.16777     -59.835423     -38.685833     -252.68246      28.370755      149.97673      49.483571      3699362      
   2188000   299.98274      0.8941894      0.67895681     1.5731462      188.89264      107.45298      182.33386     -181.70415     -140.18886      36.190839     -34.83222       256.79548     -53.2533        3700844.3    
   2189000   300.80964      0.89665423     0.67960186     1.5762561      188.89422      107.46528      182.30359      241.67564      264.31384     -51.491752     -105.71896      23.167247     -62.38846       3700684.6    
   2190000   300.44884      0.89557876     0.67855747     1.5741362      188.89036      107.46258      182.31091      347.81984      327.00909     -44.877033      57.279986      93.248261      4.2696602      3700664.4    
   2191000   300.13592      0.89464601     0.67834834     1.5729944      188.96565      107.46859      182.17054     -85.707734      75.609281      35.815288      60.272029      199.10402     -55.226523      3699495.9    
   2192000   300.01847      0.8942959      0.67755168     1.5718476      188.87043      107.46156      182.09024      85.769275      220.13654      27.329319     -96.973733      164.66587     -230.58407      3695760.2    
   2193000   300.17192      0.89475333     0.67986397     1.5746173      188.83859      107.45663      182.24226      56.122376      139.03042      58.67477       74.889448      169.39179     -106.48889      3698052.5    
   2194000   299.38523      0.89240834     0.67968277     1.5720911      188.85343      107.46097      182.24798      38.419361      135.5034      -180.78644     -135.82982      145.24069      93.085922      3698608.6    
   2195000   300.37341      0.89535392     0.67899803     1.574352       188.80265      107.49629      182.31676      78.737685      12.618084      65.27123      -97.92411       97.59179      -41.171735      3700225.3    
   2196000   300.06584      0.89443712     0.67886417     1.5733013      188.85329      107.48426      182.2627       298.73845     -61.464301      79.026208     -87.963986      257.4646      -29.674054      3699706.1    
   2197000   300.19551      0.89482363     0.67722283     1.5720465      189.00692      107.48606      182.16438     -204.95792      66.911875     -152.06501      91.469364      143.53641     -81.219343      3700780.3    
   2198000   299.82112      0.89370764     0.67855047     1.5722581      188.94353      107.4614       182.2633      -67.838672      121.27459      99.02042       50.404159      210.42085     -68.324086      3700698.9    
   2199000   300.61698      0.89607995     0.67715575     1.5732357      188.9619       107.46008      182.20217      107.09917      331.47795      223.11496     -121.8163       186.09363      13.481907      3699772      
   2200000   299.1279       0.89164131     0.68140356     1.5730449      188.81778      107.43318      182.29856      92.449498      106.06273     -154.60889      177.21006      160.83127      58.263859      3697980      
   2201000   299.81326      0.89368421     0.68128383     1.574968       188.85886      107.47488      182.30248     -192.08796     -251.68534      71.068116      238.64821      182.48949     -15.664506      3700299.8    
   2202000   299.89177      0.89391824     0.67924416     1.5731624      188.96437      107.49508      182.23717     -347.67256     -285.50412     -2.3004448      10.584889      168.11651     -90.36541       3701736.2    
   2203000   300.2593       0.89501377     0.6800738      1.5750876      188.86993      107.4941       182.18101      51.49234       114.31236      161.58725      124.86915      186.68142     -20.604777      3698712.4    
   2204000   300.23182      0.89493188     0.68000686     1.5749387      188.98252      107.50867      182.29071      41.755475     -46.766216     -87.633839      45.606461      122.78         10.865192      3703647.8    
   2205000   300.12074      0.89460075     0.67904604     1.5736468      188.94477      107.46473      182.3166       221.31007      114.13955      23.81184      -146.94004      109.93253      107.36227      3701919.8    
   2206000   300.93299      0.89702191     0.67883609     1.575858       188.93624      107.46204      182.26097     -84.152111     -436.84353     -52.631788      171.98571      167.47909      32.284382      3700530.9    
   2207000   299.46746      0.89265347     0.67877679     1.5714303      188.96481      107.51992      182.15332     -77.145603     -97.056727      47.843429     -127.76029      287.75582     -64.325298      3700896.4    
   2208000   299.47942      0.89268911     0.67841698     1.5711061      188.89969      107.49058      182.23866      19.44338      -33.251435      11.640246      175.8201       108.66515     -12.077322      3700344.4    
   2209000   299.31051      0.89218564     0.68193581     1.5741214      188.91828      107.46331      182.39138     -42.894381     -336.38488     -250.22761     -138.5062       239.29667      45.570599      3702870.4    
   2210000   300.28826      0.89510009     0.67974561     1.5748457      188.90767      107.45822      182.29971      86.177321     -61.122395      49.482516     -150.36232      288.21629     -28.100701      3700626.2    
   2211000   299.83296      0.89374295     0.67897765     1.5727206      188.86312      107.48494      182.22674     -162.91211     -99.490255      183.48198      116.8923       21.315482     -19.471364      3699192      
   2212000   299.67663      0.89327696     0.68133312     1.5746101      188.96361      107.47798      182.26637      100.1085       201.9584      -67.675069     -38.32232       204.18242     -20.176774      3701725.5    
   2213000   300.55181      0.8958857      0.67957595     1.5754617      188.91933      107.46376      182.20098     -47.286281      23.470001      119.96782     -1.4504013      98.386991      8.3618833      3699040.7    
   2214000   300.33974      0.89525357     0.67871466     1.5739682      189.01925      107.4457       182.33427     -128.56274     -235.97834      105.92484     -32.389034      293.61836      61.360425      3703082.6    
   2215000   300.58291      0.89597839     0.68011718     1.5760956      188.94362      107.48792      182.25709      326.01324      1.6997558      58.117431     -2.225484       131.52137      85.238839      3701487.8    
   2216000   300.26491      0.89503051     0.67906662     1.5740971      188.92412      107.48837      182.18131     -10.527307     -136.25222     -52.042757     -195.45376      273.17973     -139.68529      3699582.2    
   2217000   299.72905      0.89343321     0.67922104     1.5726543      188.95062      107.48916      182.20512      154.97057      85.09815      -102.2002       179.3688       64.947359     -104.93476      3700612.2    
   2218000   300.53239      0.89582781     0.67733007     1.5731579      188.92635      107.48624      182.35061      44.612991      205.16741      176.74275     -8.4385176      249.05352      24.335061      3702990.9    
   2219000   300.12827      0.8946232      0.67721694     1.5718401      188.88512      107.45698      182.28887     -75.424528      118.03045     -28.027737     -105.37051      182.5125      -146.64691      3699921.8    
   2220000   299.15855      0.89173267     0.67907519     1.5708079      188.91278      107.4812       182.32798     -11.495352     -128.42375     -140.39151     -33.189503      178.1813       0.0051053303   3702091.8    
   2221000   300.90774      0.89694665     0.67956677     1.5765134      188.88651      107.48086      182.27634     -238.32434     -128.01176     -37.509544      69.946624      236.34429      36.961231      3700516.7    
   2222000   299.4917       0.89272571     0.67911443     1.5718401      188.96063      107.45558      182.39663     -212.69055     -102.8602      -127.56614     -50.808572      104.72778      21.441873      3703540.8    
   2223000   298.78263      0.89061211     0.6815014      1.5721135      189.00655      107.4454       182.26021      13.731757      322.17486     -136.15589      230.11057      179.44919      96.183377      3701319.1    
   2224000   301.03477      0.89732531     0.68011105     1.5774364      188.89301      107.454        182.35237      219.39398      79.314136     -31.319361      179.9339       185.78951     -41.744291      3701262.5    
   2225000   300.01079      0.89427304     0.67984417     1.5741172      188.9976       107.46651      182.27899     -126.26593     -100.71355      40.656903      79.689049      35.634884     -30.322103      3702252.5    
   2226000   300.01116      0.89427411     0.67924129     1.5735154      188.86895      107.4819       182.14841      297.2691      -181.87869      347.42066      63.043018      170.964       -8.1348422      3697611.6    
   2227000   300.56199      0.89591605     0.67804362     1.5739597      188.91748      107.50009      182.31748     -313.06334      50.426963     -105.86664     -45.902026      116.90506      39.775189      3702621      
   2228000   299.98939      0.89420922     0.68093502     1.5751442      188.88703      107.47001      182.29785      306.45621      111.97477     -108.12504      82.542367      257.85524     -92.856023      3700589.8    
   2229000   300.57777      0.89596309     0.68050684     1.5764699      188.97704      107.49173      182.28293     -158.91954     -135.8165       35.214718     -43.865166      215.38486     -72.008379      3702798.8    
   2230000   299.70755      0.89336912     0.67969873     1.5730678      188.98499      107.46903      182.41684      78.764012      42.59617      -75.909116     -142.53158      193.10616      96.086157      3704892.1    
   2231000   299.40488      0.89246692     0.67887204     1.571339       189.01389      107.45737      182.35551      42.716631      101.09722      44.204708     -115.27358      26.433019      7.4607249      3703810.7    
   2232000   299.34105      0.89227665     0.67777776     1.5700544      188.94373      107.45624      182.2497      -20.010198     -17.376173     -65.62205      -119.84778      222.40577      71.52197       3700249.1    
   2233000   299.26234      0.89204205     0.67783428     1.5698763      189.00629      107.49361      182.21903      222.57348      194.72483     -2.6792189     -185.68964      77.55896      -4.0871732      3702138.2    
   2234000   300.4498       0.89558161     0.68070602     1.5762876      189.04933      107.47107      182.39337      12.765625      46.941591      143.94804      108.48666      174.92698     -21.530977      3705747      
   2235000   299.71731      0.89339822     0.68023434     1.5736326      188.99144      107.48171      182.35148     -274.71833     -283.90165      234.18011     -191.29715      107.01824     -127.98359      3704127.9    
   2236000   299.57713      0.89298035     0.67760265     1.570583       188.92702      107.48984      182.30538     -224.18129      88.524356     -202.28457      24.501104      161.68105     -133.91747      3702209.4    
   2237000   299.87951      0.89388171     0.68232133     1.576203       189.06896      107.51743      182.21337     -363.2599      -270.53283      135.40155     -71.465628      244.6367       129.0603       3704071.6    
   2238000   299.66896      0.89325411     0.67982839     1.5730825      189.01659      107.49027      182.33486     -129.3513       130.55868      90.492135     -114.7177       204.7534      -80.14151       3704578.3    
   2239000   299.97561      0.89416816     0.68038414     1.5745523      188.99844      107.46718      182.40239      391.65379      174.02915     -136.03905     -102.66971      332.59254     -111.5305       3704798.4    
   2240000   299.68674      0.8933071      0.6774924      1.5707995      189.02797      107.46395      182.36398     -166.77822     -83.204002      1.0127092      149.84316      90.95602      -201.22675      3704485.8    
   2241000   300.21303      0.89487586     0.67806153     1.5729374      188.95227      107.43567      182.49245      125.84441      138.87842     -37.947574      55.052991      189.37235      63.860655      3704635.8    
   2242000   300.07506      0.89446459     0.67586518     1.5703298      188.88375      107.48247      182.25005      123.83818     -22.158866      0.96756079     33.873099      319.27921      70.540798      3699984.4    
   2243000   299.8508       0.89379612     0.67992325     1.5737194      188.91899      107.48255      182.27815      80.083375      314.55762     -108.63554      33.353305      326.2595      -31.799351      3701248      
   2244000   299.83165      0.89373904     0.67967145     1.5734105      188.92993      107.514        182.38061      114.68059     -187.29344      45.671266     -178.4402       183.78485      22.225938      3704626.8    
   2245000   299.68348      0.89329738     0.67930838     1.5726058      188.95673      107.48536      182.27561     -203.53896      219.56124     -71.726144      86.523094      185.38992      131.85649      3702032.7    
   2246000   300.54699      0.89587132     0.67835872     1.57423        188.9998       107.50596      182.30441      143.07618      306.86594      235.319       -22.076038      341.71151      92.368514      3704171.3    
   2247000   300.15875      0.89471405     0.67906244     1.5737765      188.89386      107.46792      182.35548      362.61116     -1.7785347      5.230459       13.905148      159.8254       41.782999      3701821.8    
   2248000   299.93979      0.89406138     0.67972258     1.573784       188.9915       107.45045      182.43562      374.28374     -159.74524      13.781733     -197.34951      84.609227     -4.0809125      3704760.4    
   2249000   300.11934      0.8945966      0.67815284     1.5727494      188.96534      107.48035      182.38209      74.642031      288.37049     -154.49828      32.990472      44.885687      92.022394      3704191.5    
   2250000   300.31666      0.89518476     0.67970387     1.5748886      189.06391      107.48882      182.30796     -20.750176      77.090387      108.85671      178.27957      282.5017       114.65602      3704909      
   2251000   300.10216      0.89454538     0.67954404     1.5740894      188.99838      107.50397      182.35151     -115.55917      271.99092      111.66267      15.303852      334.43115      98.930801      3705031.8    
   2252000   300.78716      0.89658723     0.68028278     1.57687        188.92649      107.46552      182.41332      74.058304     -74.794043      86.930305     -19.048139      199.60688     -21.7036        3703553      
   2253000   299.85032      0.89379471     0.68083287     1.5746276      188.93981      107.45036      182.3821      -121.21015      73.917887     -22.846675     -35.1974        230.76592     -47.858105      3702657.6    
   2254000   299.91798      0.89399637     0.67876917     1.5727655      188.97174      107.46109      182.34565     -216.92981     -178.06864     -174.6358       82.930539      212.28166     -30.1064        3702912.8    
   2255000   300.1088       0.89456517     0.67960516     1.5741703      188.85356      107.4647       182.34105     -27.117113     -242.35984      100.1271      -43.255718      84.913601     -60.210808      3700628.2    
   2256000   300.3623       0.8953208      0.68051753     1.5758383      188.98604      107.45334      182.29043      231.90973      18.95971       20.687797     -10.464561      223.31758      140.98899      3701804.8    
   2257000   299.35032      0.89230429     0.6790605      1.5713648      188.95696      107.42077      182.34605      91.878436     -494.06722     -94.683483      188.1219       201.75521     -14.157305      3701242.2    
   2258000   299.27502      0.89207985     0.6779743      1.5700541      188.92138      107.45091      182.38669      97.35622       50.784512     -16.737886      67.53615       267.63874     -109.99897      3702408.6    
   2259000   299.73328      0.89344581     0.67810601     1.5715518      189.03807      107.47081      182.395       -195.65415     -22.189131     -73.656948      79.16925       395.58898      52.88337       3705550.3    
   2260000   300.04555      0.89437662     0.68042086     1.5747975      189.04609      107.47379      182.37537     -10.134761     -82.398719      130.32226      74.060203      284.49369      207.78956      3705411.5    
   2261000   299.7218       0.8934116      0.68102478     1.5744364      189.05349      107.42443      182.43685     -87.956235      131.62835     -28.468454     -13.538013      136.40837     -100.99769      3705103.4    
   2262000   299.66767      0.89325026     0.67759174     1.570842       189.05506      107.44237      182.3405      -175.88071     -25.061643     -76.488428      40.016893      324.39927     -12.106151      3703795.7    
   2263000   299.48327      0.89270059     0.67910654     1.5718071      189.04391      107.44889      182.37247     -246.92386      193.87095      27.953919     -238.38464      161.6951       131.18297      3704451.6    
   2264000   300.40446      0.89544648     0.67889344     1.5743399      189.1232       107.43707      182.38546     -51.031762     -113.57506     -32.663137      77.839247      222.33376     -17.974271      3705861.4    
   2265000   300.02519      0.89431595     0.68103182     1.5753478      189.00817      107.45283      182.4103      -123.25968      265.0493      -54.553897     -56.626753      187.87845     -99.347482      3704655.2    
   2266000   299.74905      0.89349282     0.67979302     1.5732858      189.09083      107.42246      182.57648     -452.03779      206.42213     -252.30531      33.687696      249.82869      92.464536      3708603.5    
   2267000   299.78584      0.8936025      0.67931798     1.5729205      188.96719      107.44278      182.38866     -209.47926      328.94257     -241.56875      26.034612      240.60736      104.18039      3703066.3    
   2268000   299.89785      0.89393638     0.68036382     1.5743002      189.05455      107.43384      182.3437       234.81405      63.375374     -13.230837     -80.883007      321.12927      64.367127      3703556.6    
   2269000   299.72766      0.89342907     0.67816623     1.5715953      189.05211      107.40358      182.37362     -18.265608      226.7557       176.4571      -129.51989      142.7533      -8.8518438      3703073.2    
   2270000   300.00644      0.89426006     0.6803524      1.5746125      189.10274      107.46248      182.42504     -1.2587366      166.86965     -171.79129      93.906052      174.26661     -77.063864      3707141.1    
   2271000   300.83334      0.89672488     0.67881043     1.5755353      189.05736      107.46515      182.40711     -41.519539      54.357844     -74.669591      24.76361       157.44609     -10.872554      3705979.4    
   2272000   300.02242      0.89430768     0.68002279     1.5743305      189.06911      107.45202      182.40959     -187.91255      168.01448      20.003232      141.94962      336.18773     -88.491567      3705807.5    
   2273000   300.33188      0.89523014     0.67860367     1.5738338      188.81616      107.44968      182.40506      240.99671      153.70935     -39.110651     -139.85819      314.7589      -27.828241      3700676.9    
   2274000   299.55284      0.89290797     0.67853869     1.5714467      188.95542      107.46686      182.32473      19.668063      87.766885     -26.013047      113.30172      292.93302     -21.344614      3702367.2    
   2275000   299.88523      0.89389877     0.67837517     1.5722739      189.00169      107.48264      182.39256      235.97639     -152.5379      -23.894763      66.19583       197.88775      58.924336      3705195.6    
   2276000   299.95366      0.89410272     0.67903821     1.5731409      188.91412      107.45836      182.51596     -353.19686     -240.70381     -17.229307      55.152837      148.92606      98.604921      3705147.3    
   2277000   299.85036      0.89379482     0.68019221     1.573987       189.01167      107.47669      182.31682     -235.57947     -95.647813      99.366276      79.831512      239.19745      17.171692      3703647.6    
   2278000   300.2843       0.8950883      0.67935179     1.5744401      189.05376      107.44467      182.38408      243.76508      40.855442      221.6208      -88.293207      185.39592      11.564509      3704734.6    
   2279000   300.52696      0.89581163     0.68127526     1.5770869      189.1245       107.41613      182.39759     -137.40424      301.7759       68.869255      19.74709       380.35485      34.429074      3705410.7    
   2280000   299.941        0.89406498     0.68134632     1.5754113      189.09895      107.46063      182.33428     -22.017558      74.754663     -86.529861     -58.036545      84.947327      124.01949      3705158.9    
   2281000   299.77973      0.89358428     0.67969723     1.5732815      188.94521      107.43134      182.38011      421.35598      111.93177     -57.6692        24.71429       178.5966      -121.09717      3702067.6    
   2282000   300.02472      0.89431454     0.67790713     1.5722217      188.96644      107.43989      182.52957     -190.2246       113.73271     -14.27739       244.75447      223.71671     -23.28206       3705812.9    
   2283000   300.14249      0.89466561     0.68095397     1.5756196      189.04642      107.45379      182.39993     -71.325397     -153.76328      189.75485      23.784857      256.99433      165.1563       3705227.4    
   2284000   300.0729       0.89445816     0.68013921     1.5745974      189.03891      107.42967      182.35254      115.61602     -175.90034     -130.68267     -52.429969      288.185        55.667077      3703286.1    
   2285000   299.91815      0.89399687     0.68031076     1.5743076      188.9744       107.46465      182.44156     -266.5669       78.381391     -255.55774     -111.42742      260.14217      94.191735      3705035.5    
   2286000   300.0951       0.89452434     0.68209161     1.5766159      189.11959      107.4408       182.40741      329.17045      224.67959      224.60585      171.80907      223.57611     -43.353379      3706365.1    
   2287000   299.86966      0.89385234     0.68063031     1.5744826      188.98148      107.42446      182.27598     -109.21073      223.2385       240.12423      109.52307      212.13303     -21.823944      3700427.3    
   2288000   300.17827      0.89477226     0.67910398     1.5738762      189.08224      107.45344      182.4312      -219.22742     -6.125055      -223.48643      157.49992      194.80137     -69.425064      3706552.9    
   2289000   300.04672      0.89438012     0.68134565     1.5757258      188.95009      107.48061      182.43784     -371.80519     -371.67641     -231.89716     -55.004142      152.4243       18.419049      3705033.5    
   2290000   300.55026      0.89588108     0.67820474     1.5740858      188.99957      107.42981      182.31326     -220.96681      440.65546      232.55011     -15.007066      141.69312     -111.49489      3701722.6    
   2291000   300.39618      0.89542181     0.67967957     1.5751014      189.08266      107.43028      182.25889      49.360057     -100.39466      221.42238      2.9576423      173.65776     -32.328111      3702261.8    
   2292000   299.89819      0.89393738     0.68107711     1.5750145      189.16877      107.42963      182.38904     -116.29726      97.969521      68.236952      125.4471       183.62392     -128.65073      3706570.4    
   2293000   299.38005      0.89239292     0.67970943     1.5721023      189.08394      107.42751      182.42353     -224.51254     -89.195255      126.81176     -12.517925      257.83029     -152.64534      3705536      
   2294000   299.92497      0.89401722     0.67742335     1.5714406      189.09842      107.42006      182.28172     -136.14663     -199.08516     -91.170457     -58.772935      226.5853      -103.59313      3702681.9    
   2295000   300.34151      0.89525884     0.67986709     1.5751259      189.09179      107.43671      182.19525      78.641137      59.964608      53.692567     -20.730342      241.2147       54.167958      3701369.4    
   2296000   299.65072      0.89319972     0.67799946     1.5711992      188.98659      107.44851      182.35129     -44.846699     -196.68481     -85.081023     -16.598481      245.90652      111.19461      3702885.1    
   2297000   300.17734      0.89476948     0.68038396     1.5751534      189.07253      107.41525      182.32834      46.864559      413.50858     -12.0346       -4.9892589      139.20197     -94.053809      3702956.1    
   2298000   300.31332      0.89517482     0.67746686     1.5726417      189.0601       107.41253      182.39859      38.414275      371.78748     -52.334597     -78.291755      242.83654     -13.185451      3704045.3    
   2299000   299.90408      0.89395494     0.67970721     1.5736622      189.07324      107.45356      182.29567      63.038898      174.04787     -41.275645     -214.27845      127.99946     -56.196983      3703626.8    
   2300000   299.65739      0.89321962     0.67981001     1.5730296      188.98102      107.47618      182.38371     -35.129187     -212.07816     -33.801618      5.8600854      243.86055      173.57646      3704387.9    
   2301000   299.76062      0.89352733     0.6802601      1.5737874      188.95586      107.45771      182.3256       253.53331     -64.152716     -65.924335      144.1406       38.787829      48.650165      3702078.2    
   2302000   300.48371      0.8956827      0.67929864     1.5749813      188.99636      107.44859      182.45087     -331.28604     -266.07197     -59.886716      171.44162      130.35835      2.4486323      3705101.5    
   2303000   299.86104      0.89382664     0.68084554     1.5746722      189.14527      107.41467      182.40381     -351.30328      54.977147     -194.05722     -113.18168      89.399125      18.093682      3705894      
   2304000   300.31768      0.89518779     0.68198436     1.5771721      189.04543      107.46921      182.34641     -32.60814      -181.7301       59.641011     -119.52397      231.70747     -101.80371      3704652.3    
   2305000   300.60171      0.89603442     0.67898085     1.5750153      188.9986       107.45772      182.33452     -231.15853      176.08028     -195.52722     -208.7488       267.69611      69.048437      3703097.2    
   2306000   299.55999      0.89292929     0.67938034     1.5723096      189.0467       107.40996      182.39936      256.4741      -81.130313      11.114708      75.646826      212.91859     -36.157094      3703710      
   2307000   300.07494      0.89446424     0.6832315      1.5776957      189.07126      107.49528      182.32882      129.59497     -35.373113      98.516361     -140.77171      130.18294      0.20974888     3705699.9    
   2308000   299.45962      0.8926301      0.68213081     1.5747609      189.0969       107.43159      182.31482      25.67277      -31.831568      46.032582      127.03609      232.97213      211.65805      3703721.8    
   2309000   300.27662      0.8950654      0.67717311     1.5722385      188.99319      107.43295      182.3054      -1.3690918     -341.61512      65.735706     -17.55316       259.92791      21.388974      3701546.6    
   2310000   300.4009       0.89543588     0.67878781     1.5742237      188.96699      107.36872      182.3237       449.11509      89.370735      182.97964     -46.304202      20.497304      127.66834      3699191.7    
   2311000   300.2045       0.89485042     0.67972977     1.5745802      189.11923      107.46278      182.42646     -328.51336     -56.70541      -87.475734     -56.975531      268.61642     -39.613026      3707503.8    
   2312000   299.82507      0.89371941     0.67900503     1.5727244      188.99874      107.4396       182.38587      124.94344      15.360232     -23.695539      77.218184      159.94115     -21.981379      3703518.1    
   2313000   299.42278      0.89252029     0.67860493     1.5711252      189.03022      107.4379       182.38604     -32.536149     -271.46471     -144.79976     -116.39524      264.18476      140.89327      3704079.8    
   2314000   299.80386      0.8936562      0.67870925     1.5723655      189.04761      107.44873      182.28388      235.54011     -84.658847      105.91921      30.838188      174.87909      6.5619836      3702718.9    
   2315000   300.13551      0.89464478     0.67805942     1.5727042      189.00029      107.44389      182.33662     -119.0277       95.159316      79.678233     -5.8721108      273.93276     -34.76489       3702696.5    
   2316000   300.19824      0.89483179     0.67928762     1.5741194      188.99374      107.43546      182.50874      88.376578      211.26119     -203.89506     -3.5276755      209.21835      165.20065      3705772.3    
   2317000   300.25152      0.89499058     0.68060927     1.5755999      189.06269      107.41675      182.34043      224.77538      273.83132      41.854941      11.180296      122.94         119.80878      3703060.7    
   2318000   299.53131      0.89284378     0.68004068     1.5728845      189.02363      107.43989      182.33782      33.280687     -31.298775      276.22148     -59.474442      97.24541       7.0413285      3703040.1    
   2319000   299.81612      0.89369276     0.67901645     1.5727092      189.15662      107.43987      182.39493      27.774258      41.299297     -87.887861     -86.940659      42.825156     -3.5267235      3706805.4    
   2320000   299.68918      0.89331436     0.68171235     1.5750267      189.16253      107.44333      182.57601     -74.731045      214.72873     -108.68816      238.95259      187.01048     -79.812631      3710720.9    
   2321000   299.84071      0.89376605     0.6795785      1.5733445      189.04939      107.4163       182.32566     -250.60136      46.000306     -68.288469     -185.67235      216.01969     -16.512317      3702484.8    
   2322000   299.84222      0.89377054     0.68038746     1.574158       189.08911      107.43833      182.32799     -208.71448     -338.19041     -157.87458     -20.191912      124.91564     -18.560101      3704069.6    
   2323000   300.28576      0.89509267     0.6794756      1.5745683      189.04744      107.4442       182.30121      179.92413      105.55574      175.59235      50.470335      239.95928      25.609885      3702911.6    
   2324000   300.01886      0.89429707     0.68216932     1.5764664      189.07944      107.46099      182.47213     -180.98643     -92.324321     -68.871501      52.425505      262.50933     -26.537287      3707590.1    
   2325000   300.53621      0.89583921     0.6799902      1.5758294      189.02513      107.44193      182.34771      141.29604     -110.85935      34.385783      134.83637      219.11277      117.94214      3703340.8    
   2326000   299.77681      0.89357558     0.67979882     1.5733744      189.08576      107.40976      182.28716      167.81452      258.74579     -142.66609     -247.59253      291.87698      8.5069419      3702189.4    
   2327000   300.06632      0.89443854     0.67983692     1.5742755      188.98352      107.47429      182.4013      -207.26513      27.717968     -219.60225      84.189135      193.07637      190.34094      3704729.3    
   2328000   299.79721      0.89363639     0.67837678     1.5720132      189.04265      107.44866      182.28278     -97.00291      -129.52611     -61.161711      145.01366      302.87264      16.607016      3702597.1    
   2329000   299.97589      0.89416899     0.67849386     1.5726629      189.05308      107.39443      182.391       -77.64589       223.57175      146.14105     -67.714797      212.47269      96.736242      3703129.7    
   2330000   299.45154      0.892606       0.67832537     1.5709314      189.09907      107.41289      182.25007     -131.57848     -55.820848     -27.902318     -86.354887      129.28856      141.55693      3701804.7    
   2331000   300.3813       0.89537743     0.68094671     1.5763241      189.05337      107.43208      182.3717      -16.800702      322.60235      32.724331     -90.354255      177.14982      73.406352      3704041.7    
   2332000   300.6694       0.89623622     0.67996262     1.5761988      189.06955      107.45747      182.33675     -212.33702     -252.52784     -72.157677      203.01879      271.76602      201.72747      3704524      
   2333000   300.06868      0.89444557     0.68145621     1.5759018      189.05422      107.44513      182.41372      220.05836      230.14825     -137.56639     -69.709485      92.65568       31.337885      3705361.7    
   2334000   300.80068      0.89662752     0.68113462     1.5777621      189.17435      107.4595       182.3455      -248.16786     -306.12728     -101.34406     -128.54294      288.26613      60.466863      3706825.3    
   2335000   300.23441      0.89493959     0.6793714      1.574311       189.04416      107.44838      182.35458     -188.52668      445.44501      117.77038     -1.5261373      326.32937      147.37094      3704075.4    
   2336000   300.41051      0.89546451     0.6801455      1.57561        188.97315      107.4183       182.37081      245.985        52.845615      55.961356      69.763933      245.38902      141.75591      3701976.8    
   2337000   299.85494      0.89380847     0.6806739      1.5744824      189.07088      107.41891      182.44893     -416.99531     -70.284305     -154.80253     -111.98809      146.19778     -35.534866      3705499      
   2338000   300.28555      0.89509204     0.67937815     1.5744702      189.07874      107.46762      182.37386     -25.699283     -131.15286      119.9924      -165.86351      134.25297      9.857669       3705808.2    
   2339000   299.67534      0.89327311     0.67939609     1.5726692      188.98189      107.44944      182.41526      140.08248      109.68169     -65.794627      153.45667      164.4568      -62.26378       3704124.1    
   2340000   299.42786      0.89253542     0.6803943      1.5729297      188.97741      107.41158      182.41749      33.23832      -13.046038     -199.1067      -70.838758      344.57017      22.537404      3702776.6    
   2341000   299.58955      0.89301739     0.67859961     1.571617       189.09469      107.44012      182.38959     -267.78484     -57.133364      2.3768189      9.0516338      160.10739      135.75322      3705491.8    
   2342000   300.04345      0.89437037     0.68071949     1.5750899      188.98353      107.50376      182.27338      161.18268     -23.033466      92.065768     -106.91077      340.37664     -143.78595      3703146.2    
   2343000   300.17214      0.89475397     0.67917333     1.5739273      189.01392      107.45633      182.35694      92.471112      212.72458      111.85711      11.688177      193.58103      6.0498033      3703804.6    
   2344000   300.30122      0.89513874     0.68267453     1.5778133      189.00877      107.46416      182.43803     -241.63953     -15.951379     -36.26179       78.803591      232.24453      2.218558       3705620.9    
   2345000   299.46674      0.89265133     0.68131042     1.5739617      189.02155      107.46466      182.29991      71.146998     -14.037236      100.37926      94.708441      172.93313     -100.04891      3703082.8    
   2346000   300.56166      0.89591504     0.68019647     1.5761115      189.1272       107.43053      182.41776      116.60318      48.743816     -51.031132      73.717761      241.33038     -2.1543883      3706370.7    
   2347000   300.00268      0.89424884     0.6784885      1.5727373      189.08251      107.44333      182.23624     -197.15302      97.392833     -84.710844      49.6935        246.12048     -2.3917416      3702248.6    
   2348000   300.49651      0.89572086     0.67857983     1.5743007      188.99734      107.46263      182.31436     -61.116027      188.64089      72.836908      38.977125      311.98343      95.498642      3702832.1    
   2349000   300.45011      0.89558256     0.67983883     1.5754214      188.97661      107.46139      182.41762      224.90478      14.297987     -111.31615     -144.23743      186.88146      9.6455422      3704480.3    
   2350000   299.70003      0.89334671     0.67859068     1.5719374      188.97726      107.4435       182.30998     -214.31399     -438.90038      95.2695        128.33847      204.49432      110.31319      3701690.8    
   2351000   299.9087       0.89396872     0.67931341     1.5732821      189.0905       107.4031       182.36889     -483.74385     -80.823294      10.417591     -76.505378      180.41243     -13.451043      3703712.7    
   2352000   299.65566      0.89321446     0.67951059     1.5727251      189.01198      107.46319      182.33862     -164.37859      64.249501     -104.53989      24.279788      215.95573      37.491206      3703631      
   2353000   299.84014      0.89376434     0.68013623     1.5739006      189.11514      107.47172      182.42593      64.688495      189.33629      152.73491      166.60505      342.07833     -63.815646      3707721.3    
   2354000   300.25766      0.89500891     0.67952195     1.5745309      189.16732      107.45456      182.30191     -238.25497     -90.9553        39.58619       27.25612       224.54832     -50.497313      3705630.9    
   2355000   300.26805      0.89503986     0.68001185     1.5750517      189.06384      107.43165      182.38728     -284.53386      31.173825      69.817254      30.680689      279.94643      54.011069      3704548.4    
   2356000   299.67644      0.89327639     0.67790419     1.5711806      188.99162      107.41647      182.32092      157.79541     -35.624995      26.526648     -116.27908      202.36953     -77.389682      3701262.6    
   2357000   299.775        0.89357016     0.68060626     1.5741764      188.94363      107.514        182.44555      97.502182      216.23283      38.302338      221.87704      183.75782      131.51681      3706214.8    
   2358000   300.05786      0.89441334     0.68078569     1.575199       189.0661       107.49069      182.34613      37.856603      276.1622      -25.589603     -199.69406      165.00725      82.313312      3705792.4    
   2359000   299.68376      0.89329821     0.68093743     1.5742356      189.05314      107.44946      182.43625      40.618491      220.23758     -189.14922      116.94486      201.83072     -27.161969      3705947.5    
   2360000   300.35737      0.89530612     0.68246089     1.577767       189.06818      107.42425      182.56259      89.093108      114.00758     -276.99351      70.401416      61.02658       72.47331       3707938.9    
   2361000   299.88906      0.89391017     0.68044698     1.5743572      189.16098      107.45492      182.34457     -35.473062     -39.100001      37.986223      45.198451      231.59895      9.6975609      3706386.3    
   2362000   299.60015      0.89304897     0.67784509     1.5708941      189.04663      107.43593      182.36741     -229.46934      235.52561     -95.965154     -2.209006       332.40264      46.623778      3703955.1    
   2363000   300.37241      0.89535094     0.68134828     1.5766992      189.09407      107.4416       182.43372     -224.94473      214.86697     -80.255432     -42.289653      149.85172      6.2872317      3706427.2    
   2364000   300.00309      0.89425006     0.68149823     1.5757483      189.02015      107.46563      182.44134      251.65492     -284.84732     -47.699909      256.36345      149.66241      43.479203      3705961.8    
   2365000   299.90768      0.89396568     0.67762649     1.5715922      189.11889      107.45483      182.36511     -52.3286        197.34329      123.95179     -107.86407      204.66859     -0.15374427     3705976      
   2366000   300.01902      0.89429756     0.67852156     1.5728191      189.14654      107.41995      182.3828       10.064579      157.65905     -104.0051       277.79978      369.29851      37.770477      3705674.2    
   2367000   300.69337      0.89630765     0.68080757     1.5771152      189.03352      107.43979      182.39036      232.82444     -82.875596      19.04735       231.94312      247.96953      15.681612      3704297.7    
   2368000   300.14866      0.89468399     0.67935565     1.5740396      188.96199      107.49026      182.34376     -42.260236     -276.38226     -200.35179     -113.0005       211.54901      92.675219      3703688.9    
   2369000   299.56984      0.89295863     0.67875908     1.5717177      189.02439      107.44382      182.29556      394.01291     -11.551299     -13.619181     -172.33457      284.14627     -46.783316      3702332      
   2370000   300.05575      0.89440703     0.67865233     1.5730594      189.02446      107.43949      182.29248      450.0659       49.465942      9.5487833      82.25668       189.44819      73.32494       3702121.6    
   2371000   299.83089      0.89373676     0.67881725     1.572554       189.10709      107.42957      182.39904      128.50193     -19.222329      110.08674     -103.07433      160.19166      110.90911      3705562.8    
   2372000   300.15795      0.89471168     0.67863223     1.5733439      189.03291      107.43849      182.39557      200.1546       13.498619     -42.52111       28.448593      63.968319      201.88359      3704346.3    
   2373000   300.65184      0.89618387     0.67952358     1.5757075      189.0495       107.40664      182.30732     -2.7390064      143.35496      35.361612     -171.47848      133.57146      101.00296      3701781.3    
   2374000   299.21008      0.89188626     0.68152924     1.5734155      189.07355      107.44562      182.29657     -191.32585     -337.87531     -79.299324      29.740987      202.94638      166.86149      3703377.6    
   2375000   299.80809      0.89366882     0.68008377     1.5737526      189.10505      107.43383      182.29852     -52.694385     -38.591627     -126.68481     -214.41253      171.09834      11.405317      3703627.6    
   2376000   299.98959      0.89420984     0.67976172     1.5739716      188.98427      107.41872      182.31654      32.639678      67.101979      25.714908     -42.945559      206.20203      38.444709      3701107.7    
   2377000   299.60104      0.89305163     0.67852251     1.5715741      189.10598      107.43789      182.39558     -352.56835     -113.67695     -267.52316      4.8893044      168.29788     -10.420397      3705757.7    
   2378000   300.06991      0.89444924     0.68037122     1.5748205      189.12564      107.44762      182.29616     -215.58268      107.84826      2.3533269     -167.61088      230.70558      16.142659      3704458.3    
   2379000   300.48324      0.89568129     0.67986188     1.5755432      189.0684       107.43689      182.35246     -52.044542     -94.637011     -138.21283     -15.731569      277.48377      35.418959      3704111.1    
   2380000   299.7842       0.89359759     0.67911528     1.5727129      189.13128      107.46977      182.20153     -57.83756       161.85045      85.850009      1.0282534      181.05942     -20.932991      3703409.2    
   2381000   300.36411      0.89532621     0.68112922     1.5764554      189.1055       107.42157      182.31083      61.335589     -1.83378        246.43521     -93.410131      156.22216      10.773663      3703464      
   2382000   299.82342      0.8937145      0.68106358     1.5747781      189.05221      107.43601      182.41094      210.43759     -214.15172      77.897597      6.5765063      225.73431     -193.27587      3704951.4    
   2383000   300.23985      0.89495582     0.67955747     1.5745133      188.97822      107.43735      182.33985     -45.644891     -318.16045      149.91359     -29.580126      334.5849      -82.751445      3702104.2    
   2384000   300.39149      0.8954078      0.67905612     1.5744639      189.02815      107.39891      182.33049      547.45643     -29.149707     -38.922899      76.791519      224.16692     -68.156107      3701567.6    
   2385000   300.62948      0.89611721     0.67942114     1.5755383      189.15399      107.436        182.28124      194.41529      194.60718     -57.56049      -206.21526      115.84669      37.058179      3704309.7    
   2386000   300.44359      0.89556311     0.68020033     1.5757634      189.1257       107.44789      182.31784     -77.762141      287.6856       71.630033     -29.660348      114.17008      10.425528      3704909.7    
   2387000   300.25108      0.89498929     0.67865756     1.5736468      189.03945      107.44996      182.30401      99.396095      27.614014     -50.505574     -27.859701      56.457523      12.553403      3703010.5    
   2388000   300.4558       0.8955995      0.6800293      1.5756288      189.04945      107.47319      182.2618      -225.06284     -20.666258     -118.18196     -69.299646      157.31659     -65.278196      3703149      
   2389000   300.05998      0.89441965     0.67578062     1.5702003      189.03503      107.44596      182.27187      26.710477     -114.67998      52.473361     -47.165966      235.3398       75.96542       3702133.1    
   2390000   300.1648       0.89473208     0.67859676     1.5733288      189.08316      107.42775      182.21069      56.748755      55.891623      206.1164      -38.072182      117.31534     -93.491825      3701205.4    
   2391000   300.09842      0.89453424     0.68030262     1.5748369      188.99031      107.41971      182.28572     -283.34211      6.0514981     -240.39084      92.828053      241.60498      134.38085      3700634.3    
   2392000   299.61403      0.89309035     0.67803144     1.5711218      189.05873      107.45172      182.45864     -247.01193     -11.936437     -83.978905     -78.796726      157.27759      60.544699      3706589.9    
   2393000   299.35065      0.89230527     0.68115752     1.5734628      189.13635      107.41695      182.33639      396.43395      282.82652      121.75788      44.369517      24.517814      61.211596      3704428.2    
   2394000   300.34473      0.89526842     0.68264375     1.5779122      189.13056      107.39026      182.30037     -34.438719     -310.13232      8.3760209      76.736498      78.398389     -83.697271      3702663      
   2395000   300.42148      0.89549721     0.67963115     1.5751284      189.04055      107.41517      182.31229     -225.02495      98.027718     -93.885628      99.398708      203.03318      20.915925      3702001.1    
   2396000   299.8448       0.89377825     0.68287179     1.57665        189.10267      107.4563       182.5212       93.338843     -34.800892      3.5363227      71.193637      284.72011     -37.130973      3708880.9    
   2397000   299.86614      0.89384185     0.67970178     1.5735436      189.06948      107.46932      182.32954      191.70177     -225.04465      21.883017     -56.551468      255.27109      133.38229      3704784.5    
   2398000   299.72726      0.89342788     0.67935353     1.5727814      189.01907      107.43349      182.28947      544.24659      375.38176      164.18759     -4.9603743      312.73906     -0.98024181     3701748.4    
   2399000   300.22294      0.8949054      0.67964535     1.5745508      189.06878      107.46184      182.28085      470.79396      378.75028      35.689268      115.18699      218.79351     -28.247967      3703523.9    
   2400000   299.84129      0.89376777     0.68057608     1.5743438      189.14735      107.44612      182.38159      165.27573      58.273655     -28.890647      62.133726      273.91357      46.557313      3706568.3    
   2401000   300.38672      0.89539358     0.67967823     1.5750718      189.10321      107.38957      182.39961      19.915964      264.34322     -55.88704       103.62556      157.88491     -99.328344      3704118.7    
   2402000   299.91671      0.89399259     0.68154798     1.5755406      189.00264      107.40903      182.41158      201.63459     -17.856991     -141.75376     -96.909832      129.14489      175.47478      3703062.7    
   2403000   300.10266      0.89454687     0.68157941     1.5761263      189.07435      107.43189      182.30504     -101.56535     -253.40845      105.83398     -47.20955       73.784772     -144.29513      3703092.1    
   2404000   300.10285      0.89454742     0.67776571     1.5723131      189.00393      107.44904      182.27576     -173.53877     -188.06122      50.172934     -134.52655      199.95005     -40.826291      3701709.3    
   2405000   299.4626       0.89263897     0.68014144     1.5727804      189.08413      107.45127      182.36034     -393.92647      79.625173     -169.92527      303.26695      17.850982     -40.264847      3705075      
   2406000   299.8397       0.89376303     0.68095419     1.5747172      189.05986      107.44582      182.34186     -45.619805      112.69287     -205.883       -31.137004      224.58613      24.433807      3704036.4    
   2407000   299.85934      0.89382159     0.6777518      1.5715734      189.08265      107.42395      182.21401      19.060281      136.90648      71.630499      18.825046      112.16131     -27.904792      3701131.9    
   2408000   300.07224      0.89445618     0.67868158     1.5731378      189.1084       107.41731      182.25113     -299.60338     -24.328578      69.30145       114.00289      199.42381     -58.315661      3702161.3    
   2409000   299.63038      0.89313908     0.67882433     1.5719634      189.0447       107.43327      182.29832      82.720152      17.972949     -49.332851      66.1695        271.52236      61.907526      3702422.5    
   2410000   299.81266      0.89368244     0.67869658     1.572379       189.04651      107.40341      182.32525     -36.066185      0.39800508    -99.026735     -31.343968      187.77061     -139.09315      3701975.4    
   2411000   299.68459      0.8933007      0.67879589     1.5720966      189.15475      107.41183      182.21192     -5.7405402     -12.481204      314.39354      3.0054345      215.22339     -69.547119      3702083      
   2412000   299.71653      0.89339589     0.67784428     1.5712402      189.04073      107.38737      182.28093      20.295715     -28.137634      143.20224     -273.97748      95.923228     -34.436801      3700409.9    
   2413000   300.87903      0.89686108     0.6803295      1.5771906      189.17134      107.425        182.30881     -207.59837      67.859874     -200.91014      71.972855      182.87821     -154.34488      3704830.7    
   2414000   299.95561      0.89410855     0.68044584     1.5745544      189.07027      107.4385       182.29397     -107.6049      -93.554905     -21.392625     -20.742795      184.84345     -44.346618      3703015.5    
   2415000   300.51299      0.89576997     0.67924279     1.5750128      188.97885      107.44143      182.30458     -66.959845     -52.873052     -134.72637      106.67626      350.43811      5.3670894      3701540.8    
   2416000   299.21369      0.89189704     0.67830424     1.5702013      189.04282      107.44146      182.2478       77.239944     -266.22835      75.52642      -15.94059       183.21835     -52.175238      3701641.6    
   2417000   300.51333      0.89577099     0.67935104     1.575122       188.99728      107.50231      182.28878      118.69003     -32.724457      101.89202      131.56356      29.936116     -59.571543      3703678.5    
   2418000   299.71984      0.89340577     0.6783852      1.571791       189.15797      107.43315      182.30768     -189.96576     -25.509301      9.2695331      43.826649      65.869997     -41.514326      3704826.9    
   2419000   300.82759      0.89670774     0.67877607     1.5754838      189.09413      107.47246      182.18638      90.686406     -293.73017     -114.48928      75.101079      92.683237      41.462263      3702466.7    
   2420000   300.03968      0.89435915     0.67812276     1.5724819      189.01988      107.38208      182.20165      311.95723      88.118181      95.329115      162.0964       268.14264      97.423267      3698210.2    
   2421000   298.80817      0.89068824     0.67894354     1.5696318      189.14386      107.41174      182.25701     -30.908378     -288.28866     -7.2605612     -223.44598      130.65216     -73.434837      3702782.9    
   2422000   299.99469      0.89422502     0.68160169     1.5758267      189.07902      107.42762      182.42086      145.19473     -30.967783      13.508054      43.729789     -13.173363     -20.628095      3705388.9    
   2423000   299.76797      0.89354922     0.67762593     1.5711751      189.09487      107.41929      182.28248     -88.450453      3.6169057      182.79795     -32.541377      321.91836      30.156436      3702601.3    
   2424000   300.86547      0.89682066     0.67857756     1.5753982      189.08746      107.40085      182.22822     -68.31622       31.95978      -40.956611      182.25213      107.90896     -107.52395      3700718.9    
   2425000   300.43558      0.89553924     0.67911673     1.574656       189.08105      107.43034      182.291        249.98631     -46.441878      52.557044      35.337781      227.17997      166.42309      3702884.8    
   2426000   299.7091       0.89337375     0.67942445     1.5727982      189.09196      107.36213      182.24433      60.144155      303.18247      248.37615     -10.481077      148.42534      152.94477      3699799.6    
   2427000   300.41333      0.89547291     0.67728692     1.5727598      189.0837       107.41083      182.29808     -226.4378      -34.154691      9.1174416      143.6022       173.95608      105.33874      3702408      
   2428000   299.95741      0.8941139      0.68009324     1.5742071      189.05322      107.42396      182.29236      215.77609      201.44029      89.621739     -83.277717      223.27696     -43.232147      3702147.3    
   2429000   299.95927      0.89411945     0.68082078     1.5749402      189.11973      107.44165      182.37705      155.62348      483.16495      138.0783      -1.4922968      61.639023      27.850446      3705780.5    
   2430000   299.74808      0.89348993     0.68048607     1.573976       189.14436      107.39666      182.30391      70.129166      403.04219     -33.143191     -76.790561      189.68129      8.6124225      3703225.3    
   2431000   300.28998      0.89510523     0.67911025     1.5742155      189.07187      107.43134      182.28493      139.69494      245.9306      -92.359712     -47.128885      37.967657     -36.29993       3702616.2    
   2432000   299.79154      0.89361947     0.67875397     1.5723734      189.08795      107.41924      182.24181      6.9763561     -32.550662      83.646831     -130.23653      283.38625      181.8679       3701638      
   2433000   300.09446      0.89452244     0.679818       1.5743404      189.10904      107.42742      182.28863     -182.89472      101.76493      122.94567     -47.868575      80.929384     -44.638832      3703284.1    
   2434000   300.57609      0.89595808     0.67780304     1.5737611      189.07255      107.42559      182.31614     -88.756939      308.1328      -48.343479     -85.705313      135.46509     -46.11651       3703065      
   2435000   299.66429      0.89324019     0.67953861     1.5727788      189.06005      107.45496      182.28927      244.14554     -75.846034      12.234046      181.84747      249.65308      69.197835      3703286.7    
   2436000   299.64308      0.89317694     0.68026094     1.5734379      189.13337      107.44655      182.3422       195.29579      106.43776     -61.529924      242.03342      27.147012     -72.178795      3705508.3    
   2437000   300.16818      0.89474217     0.67767084     1.572413       189.18755      107.37729      182.30429      4.2585082     -267.84105      92.528163      275.64433      252.78676      115.98913      3703410.6    
   2438000   299.89952      0.89394136     0.6804899      1.5744313      189.05161      107.38416      182.30203     -154.6118       183.15873      98.863526      177.20293     -11.199079     -83.760421      3700940.5    
   2439000   299.91206      0.89397873     0.6794195      1.5733982      189.04895      107.41563      182.35831      161.44962      328.1434       34.810717      35.847466      211.73342      12.319366      3703115.7    
   2440000   299.51678      0.89280047     0.67947205     1.5722725      189.10903      107.38524      182.35913      1.913753      -127.39881     -80.830225      6.4044036      328.71843     -22.264643      3703261.3    
   2441000   299.77231      0.89356215     0.67862918     1.5721913      189.19673      107.39083      182.32015     -242.42381     -129.62046      261.12142     -6.9927126      188.04556     -220.2118       3704379.9    
   2442000   300.13139      0.8946325      0.67835985     1.5729923      189.15102      107.38376      182.27183     -272.37992     -205.28497     -33.052355     -285.09905      268.83893      164.02174      3702259.6    
   2443000   299.87115      0.89385679     0.6800104      1.5738672      189.01807      107.40851      182.25538      610.49044      122.06573      181.78442      148.97615      235.43059      10.215083      3700175.9    
   2444000   299.64775      0.89319086     0.67799035     1.5711812      189.04542      107.42716      182.27966      41.154208     -325.98344     -52.793211     -40.455261      238.11538      6.1873466      3701847      
   2445000   300.56047      0.89591151     0.6788386      1.5747501      189.04885      107.42         182.22427     -186.42865      263.25225      42.743605      172.55187      128.68705      7.6812313      3700542.8    
   2446000   300.11639      0.89458779     0.67808071     1.5726685      189.11181      107.39942      182.20872      243.3131       67.057442      167.96535      8.6957778      91.811788      88.738339      3700750.1    
   2447000   300.57108      0.89594314     0.68105183     1.576995       189.14977      107.37576      182.29768     -192.28662      167.77862      62.985615     -73.077591      231.94289     -63.959813      3702484.2    
   2448000   299.48761      0.89271351     0.67812326     1.5708368      189.13421      107.40006      182.3439      -278.04014     -145.972       -46.670658      86.508705      222.3703       66.840027      3703956.3    
   2449000   299.1118       0.8915933      0.67527256     1.5668659      189.09028      107.39147      182.22855      313.72137      94.051998      55.353117      63.533795      189.09351      45.718405      3700457.4    
   2450000   299.75461      0.89350941     0.68084493     1.5743543      188.9835       107.41977      182.4854      -74.111057     -74.781213     -128.2285      -43.086797      377.35814     -33.651356      3704556.6    
   2451000   299.62785      0.89313157     0.6778176      1.5709492      189.06237      107.39102      182.30524     -228.29303      24.712624      115.24017     -46.943918      2.6420349     -2.6739369      3701453.1    
   2452000   300.18394      0.89478915     0.68043381     1.575223       189.10748      107.40235      182.2362       271.88085      42.058018     -39.290246     -79.016845      192.66383     -73.865574      3701324      
   2453000   299.62364      0.89311899     0.68013877     1.5732578      189.14951      107.37051      182.2661      -70.504887      155.3898       190.019        86.671568      156.49714     -38.449112      3701656.8    
   2454000   299.42074      0.8925142      0.6813691      1.5738833      189.16367      107.40109      182.30879     -52.13893       129.90967      4.6975665      38.519314      234.9124       1.9868668      3703855.5    
   2455000   300.21805      0.89489081     0.67975509     1.5746459      189.04917      107.40641      182.29551     -53.444675      172.03865      31.894031     -121.39207      281.28532     -99.01437       3701527.2    
   2456000   299.6354       0.89315406     0.67974819     1.5729022      189.11854      107.37471      182.25473     -114.57308     -46.340521      109.88399      216.95654      159.03681      26.940521      3700964.4    
   2457000   299.93779      0.89405543     0.67869664     1.5727521      189.21762      107.41845      182.25789     -48.691356      74.288923      109.47158     -199.26969      147.05808     -78.682556      3704476      
   2458000   300.22024      0.89489736     0.67931007     1.5742074      189.0766       107.38838      182.31404      346.27999     -37.442589      71.307306     -149.74064      175.93684      64.774654      3701819.1    
   2459000   300.31454      0.89517845     0.67762377     1.5728022      189.06186      107.45389      182.31787     -22.120516     -450.77858     -33.055133     -211.60162      439.53805      30.590695      3703866.4    
   2460000   300.14089      0.89466082     0.68050497     1.5751658      189.11734      107.4341       182.38612      2.3332169     -8.6484998     -108.20117     -135.11334      201.14188     -120.604        3705657.5    
   2461000   299.5943       0.89303155     0.67803791     1.5710695      189.1234       107.41622      182.28435      91.87235      -52.017042      82.492752      70.402202      221.30347      50.491101      3703092.2    
   2462000   299.47059      0.89266279     0.68217574     1.5748385      189.17368      107.42419      182.5036      -239.35609      78.993032     -221.1503      -87.236051      212.23252     -54.092037      3708807.2    
   2463000   300.31172      0.89517003     0.67891048     1.5740805      189.18576      107.43752      182.3905      -258.89808     -28.254313      88.8604       -56.546042      105.78886      88.727895      3707205.2    
   2464000   299.70634      0.89336553     0.67914961     1.5725151      189.18555      107.47484      182.26014      274.17988     -198.70136     -258.45278     -7.8280092      254.32824      5.715186       3705838.3    
   2465000   299.96706      0.89414268     0.67687796     1.5710206      189.11212      107.4295       182.31287     -472.64256     -154.18644     -63.871777     -68.427637      111.38869      105.83118      3703908.5    
   2466000   300.35619      0.8953026      0.67821925     1.5735219      189.13652      107.39102      182.34107      626.85857      425.19591     -90.043117      170.08489      277.16336      37.571229      3703632.1    
   2467000   299.78055      0.89358673     0.67989817     1.5734849      189.15442      107.37759      182.36035     -25.695031      288.15349     -80.728003     -70.842697      231.81006     -23.487135      3703911.2    
   2468000   300.23697      0.89494722     0.67842598     1.5733732      189.09036      107.44266      182.36694      14.985466     -150.19737      129.054        61.147059      231.15312      20.889645      3705034.7    
   2469000   300.21343      0.89487706     0.67834831     1.5732254      189.10685      107.37976      182.25898     -39.289121      350.51951     -202.48209      72.003685      235.22426      80.965094      3700995.9    
   2470000   300.21282      0.89487523     0.67856897     1.5734442      189.13819      107.39726      182.27979      266.95763      253.49815     -48.834769      80.858306      276.49688      124.56095      3702635.3    
   2471000   300.74402      0.89645864     0.67911807     1.5755767      189.17851      107.35663      182.33172      583.06971      425.98435      103.25405     -99.528919      204.50393      93.281512      3703078.3    
   2472000   300.10421      0.89455149     0.68005295     1.5746044      189.14815      107.41678      182.33443      46.944377      108.43232     -91.682388     -106.27928      126.5735      -121.1864       3704613.6    
   2473000   299.67755      0.8932797      0.67771177     1.5709915      189.09113      107.40223      182.27009      343.31398      281.06224      83.740835     -13.71458       251.62309      154.41556      3701688.4    
   2474000   300.06034      0.89442073     0.6769398      1.5713605      189.16868      107.39721      182.18086     -74.380807      92.537999     -18.206469     -12.294739      196.54922      14.660972      3701220.5    
   2475000   300.1497       0.89468709     0.67933507     1.5740222      189.15686      107.40907      182.29882      66.619211      89.622537     -82.624673      142.97623      238.83047      57.567174      3703794.7    
   2476000   300.1626       0.89472555     0.68011856     1.5748441      189.14845      107.46206      182.32347     -92.468754     -108.37356      73.838882     -128.58102      334.37952     -9.6058534      3705958.5    
   2477000   300.78345      0.89657616     0.68048701     1.5770632      189.11845      107.44478      182.32818     -117.89755      261.27229     -11.993591      253.94979      276.27357      155.92903      3704870.2    
   2478000   300.11555      0.8945853      0.67722924     1.5718145      189.1144       107.41771      182.28507      119.90117      144.61575     -44.975802      13.008582      162.747       -37.681956      3702981.7    
   2479000   299.66349      0.8932378      0.68070833     1.5739461      188.98528      107.43523      182.2573       102.73996     -380.48801     -113.20102     -6.0327606      238.42911     -135.90117      3700493.3    
   2480000   300.2593       0.89501378     0.67668929     1.5717031      189.0505       107.42094      182.21176      7.7538245      63.149494      155.31038      43.513207      312.03138     -126.18344      3700353.2    
   2481000   300.33977      0.89525366     0.67695246     1.5722061      189.04618      107.39414      182.20114      106.83481     -226.78182      170.76489      20.984496      171.45107     -86.545112      3699129.9    
   2482000   300.23649      0.8949458      0.67748673     1.5724325      189.1421       107.42437      182.21072      206.30776     -1.0650625      82.119606     -163.63229      8.7021908      63.783231      3702243      
   2483000   300.20443      0.89485021     0.67839526     1.5732455      189.19387      107.38946      182.25356     -92.375859     -80.927478     -37.747006     -198.39577      104.35076      105.82643      3702923.8    
   2484000   299.72426      0.89341894     0.67741303     1.570832       189.08743      107.39663      182.29469      243.36099     -125.88589     -39.431129     -143.0903       113.84609      43.590545      3701922.7    
   2485000   300.18849      0.89480271     0.67867229     1.573475       189.19999      107.42748      182.26819     -57.68644       359.9549      -59.820667     -87.832329      201.11099      28.409008      3704651.6    
   2486000   299.39415      0.89243493     0.67844959     1.5708845      189.08253      107.41995      182.27053      8.6183072      6.5739889     -30.772393     -28.747865      232.65653      86.415167      3702139.6    
   2487000   299.97928      0.89417909     0.67803621     1.5722153      189.06435      107.42424      182.22966     -119.42898      187.02692     -196.68219     -55.76692       230.41834     -61.57726       3701101.7    
   2488000   299.67503      0.89327219     0.67839913     1.5716713      189.1174       107.40864      182.18706     -275.04731      87.937218      26.235634     -17.117908      332.6497       89.170249      3700737.2    
   2489000   299.44341      0.89258179     0.6814744      1.5740562      189.14261      107.46494      182.2449       240.25344     -167.83517     -34.642244      93.300474      205.69507      26.118746      3704346.1    
   2490000   298.78253      0.89061183     0.67908434     1.5696962      189.13019      107.42989      182.25        -157.0667      -160.26955      250.62498     -78.878505      90.82977      -31.225776      3702998.3    
   2491000   300.14572      0.89467522     0.67793625     1.5726115      189.04425      107.42613      182.26035     -118.60647     -244.46916     -43.174361      69.597488      153.34735     -32.845577      3701396.7    
   2492000   299.72748      0.89342854     0.68034685     1.5737754      189.01739      107.44054      182.33618      186.33254     -136.03109      94.548171     -15.151065      155.64996     -48.908987      3702906.8    
   2493000   299.71342      0.89338661     0.67883561     1.5722222      189.07132      107.41865      182.16329      337.0065       153.07712      116.83657      216.62101      325.57144     -19.221264      3699697.3    
   2494000   300.07277      0.89445778     0.67898229     1.5734401      189.1636       107.41666      182.19147      189.88059      199.3635       45.634684     -57.074408      233.076        29.207807      3702007.3    
   2495000   300.11355      0.89457933     0.6771981      1.5717774      189.16183      107.44396      182.19781     -18.160365     -261.96604      1.4259269      44.600579      252.64664     -32.910045      3703042.1    
   2496000   299.87082      0.89385581     0.67860872     1.5724645      189.13787      107.387        182.3085      -37.564979      99.523247      72.973374      194.725        89.499183      157.87571      3702858.5    
   2497000   300.84041      0.89674595     0.68052082     1.5772668      189.15448      107.41643      182.28306     -10.713183     -19.365978      161.63436      78.19199       79.000932     -30.143655      3703681.7    
   2498000   300.26266      0.89502379     0.67836062     1.5733844      189.15126      107.41056      182.20649     -42.915715      152.78513      116.28139      16.80195       277.35043      12.434008      3701860.5    
   2499000   299.92061      0.8940042      0.68193919     1.5759434      189.14354      107.41897      182.269       -407.90469     -255.9247      -97.433864      129.71753      128.50623     -75.345393      3703269.5    
   2500000   299.49128      0.89272447     0.67989305     1.5726175      189.10801      107.39448      182.23402     -205.34026     -55.233679      206.88912      111.15362      177.99981     -118.38314      3701019      
   2501000   300.14755      0.89468069     0.67775085     1.5724315      189.10545      107.38573      182.14024     -188.27402     -168.20165      5.1707043      167.40935      221.23653     -6.5771016      3698763.2    
   2502000   300.32564      0.89521154     0.6791248      1.5743363      189.10331      107.394        182.28308      89.028622      362.43771      22.317193     -138.88201      91.217492     -24.377629      3701907      
   2503000   300.29195      0.89511111     0.6788862      1.5739973      189.11071      107.38581      182.29945     -106.65771     -120.06473     -125.72341     -76.320044      76.0872        38.777939      3702102      
   2504000   299.96667      0.89414151     0.67939729     1.5735388      189.16964      107.36098      182.22504      34.696223      398.91858      140.01304     -159.51515      221.36928      114.89204      3700887.9    
   2505000   299.76659      0.8935451      0.67795474     1.5714998      189.06598      107.41913      182.1527       123.70918     -0.30489429     109.99521      5.7146477      230.88242      141.02084      3699394.3    
   2506000   300.4894       0.89569966     0.68011518     1.5758148      189.1619       107.40864      182.36585     -111.67656     -51.11137      -204.11635     -359.00114      230.66615     -10.883043      3705240.4    
   2507000   300.32854      0.89522018     0.67768481     1.572905       189.08862      107.40601      182.29338      102.23407     -145.42753     -193.98719     -106.34302      313.44192     -14.966165      3702242.7    
   2508000   299.51514      0.89279559     0.67774583     1.5705414      189.10708      107.3963       182.13173     -160.75229      128.08259      104.87427     -83.457575      139.34539     -7.1399238      3698986.2    
   2509000   299.8633       0.89383337     0.68156028     1.5753937      189.17144      107.42455      182.24648      416.82376      280.30648      180.15467      7.6694901      260.74198     -108.32248      3703550.3    
   2510000   300.36148      0.89531835     0.67874283     1.5740612      189.12289      107.43229      182.24092     -143.11544     -306.99103     -160.91797      9.9868844      112.33764      19.281379      3702753.7    
   2511000   299.96086      0.8941242      0.67746356     1.5715878      189.0129       107.42496      182.30378     -60.507547      103.17398     -16.873204     -48.513628      262.92602     -25.535534      3701624.1    
   2512000   299.92993      0.894032       0.67863741     1.5726694      189.12527      107.45767      182.17386     -2.3860481      77.049455     -19.528311     -127.55645     -55.921624     -6.9127993      3702312      
   2513000   300.00266      0.89424878     0.67925733     1.5735061      189.08432      107.44334      182.22003     -103.54561      77.343605      83.571114      72.240685      168.27857     -30.421837      3701955      
   2514000   299.47788      0.89268452     0.67801938     1.5707039      189.10674      107.45303      182.19514      390.72799     -98.716083      121.06706      180.2249       172.93579      83.23942       3702222      
   2515000   300.58116      0.89597318     0.67751942     1.5734926      189.09178      107.43042      182.20482      274.47728      66.570324      259.65171      136.6397       236.62129      154.92787      3701346.9    
   2516000   299.77051      0.89355678     0.67889298     1.5724498      189.06753      107.40886      182.25882      177.37982     -105.0533      -36.314312     -66.542497      47.775263      88.150028      3701225.9    
   2517000   300.1392       0.89465579     0.67870129     1.5733571      189.09231      107.42744      182.20617     -4.5971512     -264.62484     -117.14887      90.34605       230.87337     -39.883744      3701282      
   2518000   299.77168      0.89356027     0.67698307     1.5705433      189.04531      107.38724      182.17137      229.7538       236.70334      91.359626      55.338524      148.59565      162.21133      3698270.6    
   2519000   299.79277      0.89362315     0.67803879     1.5716619      189.16696      107.41326      182.22843      61.13906       174.65959     -148.28144      19.24119       401.29229      77.843147      3702706.6    
   2520000   301.04712      0.89736213     0.67993794     1.5773001      189.16409      107.40347      182.26351      290.38878      81.405277      208.08395      17.782458      113.87799      134.68188      3703025.9    
   2521000   299.64173      0.89317292     0.67918366     1.5723566      189.13595      107.37977      182.2998       25.086415     -203.96468     -8.3813013     -56.357825      178.77526      91.729522      3702394.7    
   2522000   300.38982      0.89540283     0.67836092     1.5737637      189.08948      107.40157      182.27222      152.74372     -70.176015     -82.180879     -30.730282      289.64359     -11.464531      3701676.7    
   2523000   300.64665      0.8961684      0.67809883     1.5742672      189.07234      107.38945      182.23973      2.0976342      355.37603      25.952052     -47.049436      390.99212      138.09118      3700263.9    
   2524000   299.55581      0.89291683     0.67777188     1.5706887      189.17871      107.40729      182.22509     -183.7633       134.72616     -89.803386      194.68046      271.13518     -49.172799      3702663.2    
   2525000   300.36564      0.89533076     0.67959301     1.5749238      189.16603      107.36984      182.33874     -301.33481     -108.58721      1.5875142      39.924585      172.02983     -48.446952      3703432.2    
   2526000   300.6252       0.89610445     0.67864886     1.5747533      189.16302      107.42336      182.19195      42.108912      249.25888      143.65947     -208.56551      329.34697      111.06545      3702236.5    
   2527000   299.98088      0.89418387     0.67676973     1.5709536      189.07431      107.37664      182.16394     -189.54834     -342.88714     -127.69934     -17.355671      228.50127      8.9137206      3698322.3    
   2528000   300.42673      0.89551286     0.67910758     1.5746204      189.10333      107.42915      182.22078     -31.391872      126.9414      -143.96881     -97.550027      279.07239      149.61854      3701853.4    
   2529000   300.02711      0.89432167     0.6807619      1.5750836      189.08289      107.39956      182.18979      358.64394      343.24077      172.72901      30.560339      371.48663     -73.705513      3699804.5    
   2530000   299.78394      0.89359682     0.67786394     1.5714608      189.05478      107.36908      182.19153      239.09339      123.98402     -168.59449     -194.01111      268.67538     -51.580999      3698239.8    
   2531000   301.03984      0.89734041     0.67907733     1.5764177      189.15569      107.40988      182.2417      -98.98026      -275.8829      -231.55085     -140.22475      193.0509       64.448238      3702639      
   2532000   299.8065       0.89366407     0.67836956     1.5720336      189.1538       107.42574      182.34599      289.41704     -272.1188      -119.59071     -118.63081      183.80178      120.55774      3705268.3    
   2533000   299.73194      0.89344182     0.67932855     1.5727704      189.18147      107.44351      182.27723     -40.066892     -134.75391     -90.543532      48.99303       160.99772      79.413865      3705025.7    
   2534000   299.32756      0.89223644     0.68079603     1.5730325      189.11559      107.41912      182.18502      225.56209     -173.24281     -103.08844     -128.21321      137.27291      7.9293605      3701021.3    
   2535000   299.96652      0.89414107     0.67911686     1.5732579      189.10497      107.44314      182.27983     -23.677982      263.74355      163.33041     -261.74521      174.77572      75.711433      3703567.2    
   2536000   299.71663      0.89339619     0.67960665     1.5730028      189.07466      107.38798      182.38636     -60.847854      167.58109      16.024803      47.111521      158.44911      112.66649      3703235.6    
   2537000   300.38567      0.89539046     0.67733552     1.572726       189.207        107.40495      182.22725     -155.06298      158.7642       31.044037      79.028229      187.14356     -78.193119      3703180.2    
   2538000   299.45036      0.89260249     0.67862791     1.5712304      189.13806      107.35065      182.19874     -64.789084     -226.65749      30.927315      61.269758      262.88324      219.8753       3699380.5    
   2539000   299.83362      0.89374492     0.67836294     1.5721079      189.10436      107.40535      182.2338      -144.41021      322.79947      81.96895      -18.762678      270.19157      20.321147      3701317.9    
   2540000   300.26446      0.89502916     0.67971142     1.5747406      189.07613      107.41434      182.21999      97.222093     -173.11355     -0.96004822    -130.80135      321.57379      51.118958      3700794.5    
   2541000   300.52388      0.89580245     0.67799936     1.5738018      189.11285      107.37484      182.20805      192.6432       240.05361      22.207284      350.44628      48.982848      185.81062      3699909.8    
   2542000   300.33179      0.89522985     0.68113126     1.5763611      189.07547      107.3753       182.32472     -236.67545      197.02394      11.218189     -29.104549      328.88202      200.74404      3701562.9    
   2543000   299.98004      0.89418138     0.67668955     1.5708709      189.16184      107.38836      182.27771     -168.27704     -140.87366      32.473338      96.621069      162.71914      16.891108      3702749.4    
   2544000   299.68713      0.89330824     0.67834715     1.5716554      189.09441      107.40038      182.17638      261.95141     -40.149411      9.9619693      31.280319      166.07141      169.56973      3699785.7    
   2545000   299.5426       0.89287744     0.67885988     1.5717373      189.05938      107.4145       182.28877     -42.786318     -102.54233      6.46693       -4.3576529      288.72386     -46.927474      3701868.9    
   2546000   299.59068      0.89302076     0.68145966     1.5744804      189.22842      107.39531      182.28127      160.77808     -168.2043      -51.747385      54.999178      229.5416       56.00248       3704364.6    
   2547000   300.4831       0.8956809      0.68086711     1.576548       189.24089      107.40362      182.30162     -275.24764     -31.228133     -94.342921     -166.56353      157.22571      17.501081      3705308.9    
   2548000   299.49368      0.89273161     0.6797074      1.572439       189.17918      107.40142      182.25225     -71.940538     -185.03634      35.624844      88.514361      198.84701     -38.951878      3703021.8    
   2549000   300.14541      0.8946743      0.67899564     1.5736699      189.19713      107.39308      182.29168     -529.66835     -87.134187     -172.70468     -33.300833      192.65075     -125.32822      3703886.9    
   2550000   300.30755      0.89515762     0.68012854     1.5752862      189.20671      107.37357      182.32947     -201.48353     -200.70161      104.20602     -136.85036      202.10669     -75.204985      3704169.3    
   2551000   300.12358      0.89460922     0.67696484     1.5715741      189.1668       107.38969      182.22992     -138.86149     -282.57234      32.938691     -191.86579      221.55521      110.28726      3701921.4    
   2552000   299.86041      0.89382477     0.67733445     1.5711592      189.11588      107.43171      182.19628     -5.7593698      162.36172      149.96071      160.54211      225.34063     -62.604771      3701689.7    
   2553000   299.97906      0.89417844     0.68043308     1.5746115      189.12888      107.42907      182.27095      446.98509     -361.92729      275.63375     -305.15911      309.17389      0.048187836    3703370.4    
   2554000   299.79919      0.89364229     0.67992474     1.573567       189.14812      107.38291      182.34387     -36.18458       70.39637      -141.43419      60.606316      68.356838      57.675214      3703636.7    
   2555000   300.26777      0.89503904     0.67964581     1.5746848      189.12844      107.41982      182.35651      272.19623      277.26328      102.40362     -137.86052      228.8582       141.90689      3704781      
   2556000   299.85208      0.89379994     0.680939       1.5747389      189.12526      107.41043      182.28623     -362.8471      -38.989781      263.34763      149.35349      339.86013      211.91122      3702967.2    
   2557000   300.36736      0.89533589     0.67903639     1.5743723      189.1869       107.40386      182.32117     -74.271583     -24.943996      146.10882      315.65584      99.709636      45.221476      3704657.5    
   2558000   300.17821      0.89477207     0.67979239     1.5745645      189.19848      107.37346      182.40629     -32.332212     -30.226204     -136.83186      37.198102      130.93103      123.24781      3705564.7    
   2559000   300.22344      0.8949069      0.67947297     1.5743799      189.16709      107.37462      182.322        509.31095      202.72312     -93.546068     -34.574279      358.63434     -10.32184       3703277.8    
   2560000   299.68484      0.89330142     0.68109948     1.5744009      189.04904      107.41092      182.40145      75.733787     -33.605571     -127.21777      36.441903      208.00287      94.58903       3703831.3    
   2561000   300.02525      0.89431612     0.68013858     1.5744547      189.20203      107.37397      182.16175      42.652885      97.750124      299.9858      -195.82022      177.21704      75.531247      3700684      
   2562000   299.96046      0.89412298     0.67852241     1.5726454      189.2039       107.3953       182.25052      154.10042      368.88618      312.00199     -151.10081      280.59152      9.9290546      3703259.4    
   2563000   299.36701      0.89235404     0.67774003     1.5700941      189.12649      107.38054      182.23464      59.855265     -13.469617     -168.78643      45.928728      219.77507      84.578547      3700912.9    
   2564000   299.73245      0.89344336     0.68033611     1.5737795      189.18548      107.44396      182.31991     -212.62195     -98.716407      99.116806     -166.06874      333.37629      123.25461      3705987.2    
   2565000   299.84788      0.89378741     0.67954038     1.5733278      189.15069      107.37547      182.32195     -225.39562     -93.147582     -118.55188     -57.224929      161.83208      87.406118      3702985.1    
   2566000   299.90396      0.89395459     0.68031817     1.5742728      189.16047      107.40593      182.40895      290.91126      124.4063      -279.94356     -110.77013      316.10517      77.16063       3705994.7    
   2567000   300.43583      0.89554        0.67840718     1.5739472      189.21271      107.47328      182.33206     -146.72476     -400.64919      45.401526      248.75183      262.58241      116.68471      3707779      
   2568000   299.02933      0.89134748     0.67997316     1.5713206      189.21169      107.40495      182.22846      43.229513     -172.84407     -151.70728     -39.095887      185.17565      72.737839      3703296.2    
   2569000   300.1194       0.89459676     0.68047907     1.5750758      189.24378      107.39642      182.35229     -95.865071     -342.24559     -164.04745      206.13826      87.765156     -81.038898      3706147      
   2570000   300.19319      0.89481671     0.68039547     1.5752122      189.32011      107.39824      182.36698     -447.2632      -22.101291     -171.15441     -122.53421      209.99947      181.48386      3708003.4    
   2571000   300.39395      0.89541515     0.67781638     1.5732315      189.26162      107.40374      182.234       -593.83746     -142.68627      139.04557      70.933368      159.88964      33.825739      3704344.3    
   2572000   299.57993      0.89298873     0.68062603     1.5736148      189.22856      107.393        182.27742     -135.30124     -90.091006      99.977208      21.563882      300.71932      81.926085      3704209.5    
   2573000   299.43417      0.89255422     0.67949692     1.5720511      189.18144      107.38902      182.27169      178.59399      298.05356      211.49699     -74.935258      438.73745      47.93196       3703033.3    
   2574000   300.42062      0.89549464     0.68055807     1.5760527      189.17833      107.37836      182.42187      14.235694      18.461662      52.831152     -184.94166      312.59579     -34.340786      3705655.7    
   2575000   300.17788      0.89477108     0.68106536     1.5758364      189.26605      107.38773      182.32127      192.67166      145.47179      211.08799      280.55545      224.13477     -116.2076       3705652.8    
   2576000   300.17164      0.89475247     0.68112888     1.5758814      189.23862      107.42374      182.33092      204.07907      99.425014     -84.956441      48.704306      339.66335      65.245558      3706554.3    
   2577000   300.4451       0.89556763     0.68070553     1.5762732      189.21459      107.42305      182.4332      -79.497869     -167.40839      56.809153     -50.105524      234.64939      80.583832      3708138.5    
   2578000   300.23871      0.89495241     0.68165691     1.5766093      189.30985      107.39622      182.32926     -115.67833      248.49035     -307.01902      100.67463      204.4133       33.827387      3706966      
   2579000   299.58804      0.89301289     0.68042427     1.5734372      189.26747      107.3862       182.44954     -200.03959     -122.55508     -17.854307     -163.59275      170.48219      117.3786       3708234.7    
   2580000   300.49534      0.89571738     0.68098015     1.5766975      189.20583      107.42037      182.30597      86.838128      76.672801      97.541692     -48.809277      301.39871     -79.560601      3705288.6    
   2581000   300.23649      0.89494578     0.67951653     1.5744623      189.20796      107.40938      182.29958     -175.64755     -56.377191      123.03531     -129.45697      287.00988      47.637137      3704821.4    
   2582000   300.58372      0.8959808      0.67919932     1.5751801      189.16875      107.43856      182.36122      48.665934      41.080315     -34.904385      62.259561      261.35067     -10.757555      3706313      
   2583000   300.6542       0.8961909      0.68025298     1.5764439      189.27333      107.39961      182.29066     -136.33431      64.111012      92.436877     -41.658107      189.67452     -56.91984       3705583.1    
   2584000   299.48339      0.89270095     0.68007325     1.5727742      189.27253      107.4162       182.28683      13.152308     -198.94621      14.747111     -222.59995      338.1795       1.7326438      3706062      
   2585000   299.67772      0.8932802      0.67862244     1.5719026      189.19248      107.38727      182.37487      35.648433      246.90926      2.4533434      109.58178      284.22639     -26.469389      3705285.4    
   2586000   299.68686      0.89330746     0.67855248     1.5718599      189.24702      107.39393      182.39051      82.18253       188.09139     -141.58537     -165.47097      305.84966      81.735034      3706901.3    
   2587000   300.51462      0.89577483     0.67947008     1.5752449      189.25149      107.39431      182.37164      128.34113     -246.8549       126.83958      81.679789      306.00951      18.012247      3706618.5    
   2588000   299.58969      0.89301781     0.68230197     1.5753198      189.27415      107.38973      182.37444     -17.020589     -464.73048      166.79683      42.169692      217.30936      91.389099      3706961      
   2589000   300.35911      0.89531129     0.68047418     1.5757855      189.36034      107.41987      182.39587      5.3995282      149.73218      52.533265     -85.56184       315.26952      40.246308      3710125.7    
   2590000   300.64164      0.89615347     0.67945203     1.5756055      189.28031      107.3894       182.40632      80.070944     -128.35275      35.327048     -148.46069      223.48355     -57.60615       3707718.2    
   2591000   300.30589      0.89515267     0.67989219     1.5750449      189.22541      107.38728      182.32476      26.298742      520.92906     -6.3486538     -1.340154       375.01283     -85.058435      3704912.7    
   2592000   300.28755      0.895098       0.68117713     1.5762751      189.21355      107.37986      182.33086     -294.58209      94.05293       82.198489     -86.816412      212.61606     -31.124429      3704548.1    
   2593000   299.36821      0.89235762     0.68012045     1.5724781      189.23381      107.40397      182.30504      185.3439       4.075803       94.632789      41.504072      220.52431      72.697425      3705252      
   2594000   300.70051      0.89632894     0.68205509     1.578384       189.17911      107.42187      182.52747      186.06271      300.05371      313.34277     -228.84875      343.26283      119.68284      3709318.6    
   2595000   299.8998       0.89394219     0.67790113     1.5718433      189.20829      107.39995      182.3282      -85.559263     -36.381692      65.817711      104.79014      336.23297     -21.552312      3705084      
   2596000   299.81949      0.89370281     0.68102318     1.574726       189.23043      107.43983      182.31614      222.3367       2.8171483     -22.669578     -84.638658      258.83967      53.982106      3706648.6    
   2597000   300.01842      0.89429577     0.67941021     1.573706       189.22251      107.39123      182.3324       9.0237152     -0.20636815    -94.320544     -103.35931      260.76176     -115.06887      3705147.5    
   2598000   300.14762      0.89468087     0.68131677     1.5759976      189.21494      107.4054       182.36535      258.0727      -259.41847      80.740143      3.7456635      102.69742     -143.53781      3706157.5    
   2599000   300.20912      0.8948642      0.68185928     1.5767235      189.28897      107.40652      182.47143      161.73075      49.246585     -120.3805      -62.406217      249.30144     -85.576194      3709802.7    
   2600000   300.05607      0.89440799     0.67950479     1.5739128      189.18835      107.37009      182.43395     -17.035341     -339.0872       7.1892037      6.1685374      259.10849      145.82799      3705811.9    
   2601000   300.27561      0.8950624      0.67935417     1.5744166      189.26076      107.36918      182.32363     -339.13876     -238.39572      211.33241      78.588309      198.51994      68.835391      3704957      
   2602000   299.51014      0.89278069     0.67945381     1.5722345      189.25137      107.38555      182.35137      4.8571224      35.020278      80.445987     -139.78697      163.02072     -11.745777      3705902.1    
   2603000   299.81411      0.89368675     0.68125637     1.5749431      189.20742      107.34847      182.35555      92.627662     -249.26915     -191.97969     -207.96615      77.743099     -19.291541      3703846.8    
   2604000   300.67187      0.89624356     0.67747903     1.5737226      189.26631      107.35278      182.4647      -365.04491     -115.46833     -182.56392      140.15751      330.59065      79.175212      3707365.8    
   2605000   299.42659      0.89253162     0.6815604      1.574092       189.25587      107.3715       182.38096      47.415841     -36.035941      177.40251      194.01732      230.66487      164.27212      3706106.4    
   2606000   300.46858      0.89563759     0.67900984     1.5746474      189.31923      107.41012      182.36551     -365.00007      11.500592     -88.213176     -180.18562      240.0987       176.81767      3708366.5    
   2607000   299.78176      0.89359033     0.679352       1.5729423      189.2328       107.40421      182.25311      93.896067     -385.79977      101.47656     -58.792557      140.79161      11.440406      3704185.1    
   2608000   300.26532      0.89503172     0.68178966     1.5768214      189.30054      107.4245       182.42361     -214.42715     -266.66508     -117.44313     -198.53206      301.28345      184.99512      3709678.4    
   2609000   299.78194      0.89359085     0.6798555      1.5734464      189.24673      107.40436      182.50861      120.65982      204.7788      -162.92986     -151.19196      331.90417     -9.7142208      3709656.2    
   2610000   299.6372       0.89315941     0.68086127     1.5740207      189.20347      107.36695      182.46989      12.995855     -76.354032     -287.54402     -26.348862      312.06874     -42.840215      3706729.8    
   2611000   299.93594      0.8940499      0.68063626     1.5746862      189.33124      107.37069      182.37372      114.86292      66.884025     -126.49525      78.253755      235.68239      120.19691      3707407.2    
   2612000   299.94244      0.89406927     0.67758606     1.5716553      189.24816      107.34403      182.34188     -19.969483      54.538154     -167.25985      60.138319      317.80994      62.146164      3704213.3    
   2613000   299.73669      0.89345598     0.68032794     1.5737839      189.32896      107.3736       182.37534     -144.85526      43.599599      236.05951      62.723154      293.54724     -59.776169      3707495.8    
   2614000   300.51561      0.89577778     0.68079956     1.5765773      189.28463      107.36816      182.46535      76.627566      159.01848      42.65044       38.477256      254.95657     -6.09318        3708269.2    
   2615000   299.92729      0.89402413     0.68214199     1.5761661      189.3244       107.40103      182.35211      129.23766      200.01474      53.236415      131.08597      97.49977      -33.186776      3707881.5    
   2616000   300.28358      0.89508615     0.6810545      1.5761407      189.22999      107.37293      182.40334      103.98326      447.8188       93.376536     -58.963902      161.05862      89.720505      3706103.6    
   2617000   300.72382      0.89639841     0.68078255     1.577181       189.27299      107.38618      182.50357     -275.42251      19.44208      -102.27362      89.945318      343.25078      89.289985      3709440.4    
   2618000   300.20375      0.89484819     0.68110072     1.5759489      189.3602       107.42955      182.43445     -129.93754     -278.65821     -188.52775     -109.47662      238.89524      55.818413      3711242.5    
   2619000   299.90379      0.89395408     0.68090252     1.5748566      189.30464      107.41622      182.40673     -267.21135     -105.45445     -119.52674     -117.84551      313.8202       100.68817      3709129.4    
   2620000   300.15247      0.89469534     0.68195378     1.5766491      189.28896      107.39108      182.42319     -27.041089      276.78283     -1.1858462      39.238715      224.41053     -6.8717896      3708288.9    
   2621000   299.40828      0.89247705     0.67984313     1.5723202      189.3422       107.3789       182.30542      125.28962     -76.472391      155.85249     -82.457055      263.66165      206.37673      3706516.9    
   2622000   299.90738      0.89396477     0.68292881     1.5768936      189.2578       107.40429      182.4051      -200.63305     -82.26329      -149.7804      -96.829658      272.80929      162.83265      3707766.7    
   2623000   300.03401      0.89434225     0.68025015     1.5745924      189.27089      107.377        182.36245     -86.972406     -82.496967      121.78487      62.074487      319.5658       17.651469      3706214.2    
   2624000   300.85366      0.89678545     0.68021806     1.5770035      189.2953       107.39149      182.28758      24.254774     -25.653147      207.2193       145.19224      328.0876      -8.320446       3705670.5    
   2625000   300.11829      0.89459345     0.67989843     1.5744919      189.22845      107.40839      182.38733      48.838277      212.96442     -22.490245     -101.09031      314.65326     -11.373564      3706971.9    
   2626000   300.48072      0.8956738      0.68098902     1.5766628      189.18985      107.44013      182.44292     -54.573643     -288.94221     -34.666741     -161.87803      362.46396      116.39304      3708440.9    
   2627000   299.44977      0.89260073     0.68020421     1.5728049      189.23428      107.40851      182.44397      48.435557     -330.72437      102.57168     -84.511726      286.33502      31.010964      3708241.7    
   2628000   300.79536      0.89661168     0.68388777     1.5804995      189.33555      107.38147      182.35235      272.9997       128.02431      84.631662      58.400716      375.01029      155.09481      3707429.5    
   2629000   300.3606       0.89531573     0.68430394     1.5796197      189.3563       107.36362      182.39201      85.761665      254.03051      88.826387      18.636982      225.66972      88.16019       3708025.5    
   2630000   299.82243      0.89371156     0.6809483      1.5746599      189.2707       107.42083      182.46083      61.680807      178.25383      94.224298     -120.75878      328.44247      62.191595      3709723.3    
   2631000   299.46813      0.89265546     0.68229075     1.5749462      189.36319      107.44279      182.45417      231.24426      74.948626     -68.20317      -24.861571      341.45981     -105.4387       3712159.5    
   2632000   299.99398      0.89422291     0.68320422     1.5774271      189.20935      107.40997      182.52082      15.933308     -81.358333      41.634216      99.302344      321.51982      14.060971      3709365      
   2633000   300.36628      0.89533266     0.68135176     1.5766844      189.25446      107.40054      182.4719      -20.247519     -9.8810187      33.0977       -165.68081      201.21217      82.623526      3708929.4    
   2634000   299.33011      0.89224405     0.68123932     1.5734834      189.27057      107.38715      182.45801     -27.821053     -195.60929     -127.30609      142.31542      340.21535      97.730351      3708500.3    
   2635000   300.31616      0.89518328     0.68255309     1.5777364      189.31871      107.36322      182.43308      50.826966      130.04571      124.7548      -171.64242      398.14691      90.198728      3708110.4    
   2636000   299.74294      0.8934746      0.68031361     1.5737882      189.22875      107.3482       182.4966       218.31422      299.83592      39.11392      -67.149247      346.33798     -7.3706641      3707120.1    
   2637000   300.46391      0.89562369     0.6822746      1.5778983      189.38375      107.37616      182.53817     -189.35647     -170.22835     -80.929247      219.39893      293.1991       108.18278      3711968.3    
   2638000   300.41952      0.89549138     0.67947341     1.5749648      189.34172      107.37397      182.37361     -189.39277     -8.6891437      145.60029      124.19714      431.86933      19.399387      3707723.2    
   2639000   300.29443      0.8951185      0.68030807     1.5754266      189.27039      107.43244      182.52245     -36.118731     -72.298726      110.94667      58.359142      491.54853     -50.33408       3711371.2    
   2640000   300.63068      0.89612079     0.68055521     1.576676       189.23494      107.34827      182.38537      88.469012      55.943591      127.70864      262.07278      310.37483      75.501822      3704984.4    
   2641000   300.14735      0.89468008     0.67955377     1.5742339      189.23978      107.38172      182.44956      385.17565      230.92493      21.844787      14.807593      309.31726      7.1618508      3707538.1    
   2642000   300.10296      0.89454776     0.68144941     1.5759972      189.27672      107.40727      182.5375       343.74799     -93.481752      230.46312     -130.33722      140.06437      251.82296      3710931.6    
   2643000   299.88102      0.89388622     0.6818019      1.5756881      189.26074      107.42537      182.46142     -160.42128     -56.043334     -16.605253      278.05703      244.76206      169.72909      3709697      
   2644000   299.88135      0.8938872      0.68113346     1.5750207      189.25787      107.42332      182.46017     -9.9097569     -152.7159       28.312093      114.60208      388.62032      238.54711      3709544.6    
   2645000   300.09688      0.89452965     0.67954181     1.5740715      189.26419      107.37073      182.44284     -439.68127      195.29924      129.56805      26.227543      254.81411      100.52981      3707500.4    
   2646000   300.21825      0.89489141     0.68189846     1.5767899      189.35213      107.43572      182.51594     -142.14476     -77.305388     -126.28333      136.0474       425.54862     -53.190571      3712955      
   2647000   300.31607      0.89518299     0.68001522     1.5751982      189.37485      107.36724      182.48917     -39.895959      24.867106      118.62939     -77.474641      331.35243     -26.632578      3710489.2    
   2648000   299.67194      0.89326298     0.68223341     1.5754964      189.34902      107.38718      182.4733      -208.88173      112.09023     -28.774854      2.9141956      349.96793      98.403975      3710349.4    
   2649000   299.64876      0.89319389     0.6810074      1.5742013      189.33149      107.36689      182.41455     -173.13041      40.565921     -80.919106      198.74905      247.85166      181.34069      3708110.7    
   2650000   300.04082      0.89436253     0.68210639     1.5764689      189.30715      107.40392      182.5175      -91.83415      -58.093092     -24.82851      -93.304165      357.9178       113.50491      3711005.8    
   2651000   300.11095      0.89457157     0.68167954     1.5762511      189.2281       107.41998      182.47047      108.48852     -190.52709      19.319777     -109.59877      357.28906      103.27506      3709055.1    
   2652000   299.4013       0.89245625     0.68200567     1.5744619      189.31477      107.40278      182.50423     -459.80976     -271.98057      173.11181     -0.38776782     324.4195       65.921708      3710846.3    
   2653000   300.30258      0.89514278     0.68214831     1.5772911      189.37939      107.36563      182.48771      67.957641      160.56219      187.06374      35.913648      180.90245     -0.16469997     3710492.8    
   2654000   300.04779      0.89438331     0.68359691     1.5779802      189.35387      107.40742      182.45926     -97.046145      57.436403      101.21281      88.056762      380.20478      20.331563      3710858.3    
   2655000   300.62364      0.89609979     0.68208745     1.5781872      189.26757      107.41439      182.54628     -5.2444207      106.20004     -125.67493      35.174995      346.77283     -7.0628838      3711176.7    
   2656000   299.96719      0.89414307     0.68301398     1.5771571      189.22925      107.40821      182.54542      86.731091      162.34208      218.15914      49.107667      325.64379      64.731964      3710194.4    
   2657000   300.59414      0.89601188     0.67999651     1.5760084      189.31243      107.35812      182.49734      72.967824     -267.73398     -225.56224     -41.205498      354.55412     -33.706543      3709117.6    
   2658000   299.83613      0.89375239     0.68313672     1.5768891      189.3159       107.37351      182.57401      201.29453      277.63416      128.89165      11.457786      263.6682       123.9631       3711275.5    
   2659000   299.49888      0.89274712     0.6823121      1.5750592      189.40047      107.38416      182.61931      395.19801      106.15265     -119.67877     -167.46106      189.39718      79.936922      3714223.2    
   2660000   300.41574      0.8954801      0.68010243     1.5755825      189.37586      107.3917       182.53407     -96.747581     -367.14325      37.578455     -9.5390763      134.58136      106.43249      3712267.4    
   2661000   299.75763      0.8935184      0.68236418     1.5758826      189.34583      107.32366      182.46259      47.227202      346.55758      70.067487     -47.409982      348.19983      180.43727      3707875      
   2662000   299.86468      0.89383751     0.67982143     1.5736589      189.38343      107.36392      182.48425     -184.38699     -4.6801989     -115.73752      11.789435      394.19465      170.61493      3710442.7    
   2663000   300.49603      0.89571944     0.68241        1.5781294      189.26385      107.4039       182.51269     -79.856223     -164.77229      201.84921     -125.19979      245.34377      129.60287      3710058.7    
   2664000   299.92524      0.894018       0.682827       1.576845       189.26185      107.48868      182.59208      116.00359     -87.510817      56.996981     -177.87462      187.19607      30.556331      3714563.3    
   2665000   300.01972      0.89429965     0.68162675     1.5759264      189.33076      107.39167      182.4988       287.12386     -396.85472     -98.492299      54.901307      189.26613      158.38529      3710665.4    
   2666000   300.6865       0.89628718     0.68194947     1.5782366      189.4087       107.3966       182.47526      270.91195     -89.675348     -34.904704     -143.70829      398.05537      55.677836      3711884.6    
   2667000   299.88547      0.89389947     0.68368337     1.5775828      189.27105      107.41432      182.60259     -12.198616     -423.19206     -226.73529     -165.32174      355.86949      144.85143      3712387.7    
   2668000   299.15925      0.89173475     0.68371336     1.5754481      189.33912      107.40397      182.61957     -11.751395     -41.577465     -83.96466      -255.21409      288.48742     -8.5219525      3713710      
   2669000   300.09946      0.89453734     0.68198212     1.5765195      189.32051      107.37467      182.52911      170.89246      124.1854       118.55977      45.537391      293.41466      72.190354      3710493.3    
   2670000   300.50545      0.89574751     0.68234643     1.5780939      189.39547      107.36959      182.5059      -4.3625015      358.48211      105.99507     -20.60195       351.80305      150.71602      3711314.9    
   2671000   299.85697      0.89381451     0.6857363      1.5795508      189.40142      107.41655      182.58984     -291.33724     -74.741316      30.420896     -12.232177      247.00039      87.19828       3714762.3    
   2672000   299.94854      0.89408747     0.68206319     1.5761507      189.32493      107.40384      182.59624      152.99898     -108.22726     -211.25636     -231.06229      296.23739      209.01628      3712952.9    
   2673000   299.78101      0.8935881      0.68299474     1.5765828      189.40024      107.41676      182.51778     -25.835431      223.4149      -8.4115949      27.365481      374.34226      22.433373      3713280.5    
   2674000   300.24655      0.89497577     0.6827835      1.5777593      189.46078      107.39259      182.53691     -271.80212     -109.57279      55.340612      11.078728      233.7091       214.59096      3714020.6    
   2675000   300.50322      0.89574086     0.6814752      1.5772161      189.38615      107.38575      182.47038      161.82241      258.83061      133.26332      94.62744       323.77099      12.778362      3710968.3    
   2676000   299.22675      0.89193596     0.68155685     1.5734928      189.36083      107.35314      182.60893     -165.76091      268.99653      13.578163     -92.933068      382.63454      18.233735      3712161.8    
   2677000   300.58512      0.89598497     0.68273897     1.5787239      189.36159      107.39245      182.61911      112.75145     -180.89771      106.83257      180.13948      256.58888      190.52412      3713743.3    
   2678000   299.59499      0.89303361     0.68206463     1.5750982      189.45247      107.3886       182.55241      72.667345     -173.76663     -169.18392      21.673773      381.33072     -8.4338844      3714035.4    
   2679000   300.30977      0.89516422     0.68083502     1.5759992      189.394        107.41017      182.48542      202.61549     -290.25394     -152.11386      257.06275      420.95044     -105.04959      3712271.9    
   2680000   299.77778      0.89357847     0.68169009     1.5752686      189.29115      107.41136      182.55017      330.03647      271.86712     -102.95247     -42.280553      261.64235      108.97228      3711613.7    
   2681000   300.10139      0.89454308     0.6828244      1.5773675      189.34565      107.42065      182.64469      80.12906      -320.19111     -80.061836      95.416568      236.4672       82.748996      3714926.1    
   2682000   299.95513      0.89410711     0.68216095     1.5762681      189.34786      107.42464      182.49585      256.81806      164.73228      33.323923     -144.84764      379.30356      131.03599      3712079.9    
   2683000   299.97155      0.89415606     0.68290399     1.57706        189.42714      107.39348      182.52038      257.94179     -185.97463     -107.01787      98.426293      427.50946      52.13919       3713055.9    
   2684000   299.9589       0.89411835     0.68118802     1.5753064      189.34938      107.38448      182.54767      35.989255      79.186918      44.718844      42.939602      432.61404      8.3138087      3711775.4    
   2685000   300.57825      0.89596452     0.68539922     1.5813637      189.41493      107.42956      182.62793      459.75321     -134.6884      -5.2559176      14.468683      286.28604      168.05118      3716252.3    
   2686000   300.96475      0.89711658     0.68051973     1.5776363      189.43308      107.40965      182.56399      13.193396      1.5416939     -234.06279     -307.53368      365.81235     -9.1385362      3714618.7    
   2687000   299.92289      0.894011       0.68340685     1.5774179      189.323        107.4029       182.64477      45.661608      184.85148     -95.603934     -68.478882      334.7401       43.114818      3713869.5    
   2688000   300.18441      0.89479054     0.68553847     1.580329       189.41452      107.3985       182.64587     -128.43684     -276.84324     -27.238032     -23.941774      298.40596      34.08274       3715534.6    
   2689000   299.89232      0.89391988     0.68098517     1.5749051      189.42685      107.3662       182.6282      -28.101754     -28.672948     -68.119172      92.238385      295.59469      79.186035      3714300      
   2690000   300.09744      0.89453132     0.68239587     1.5769272      189.44497      107.39632      182.51098      5.5485517      108.93425     -10.841317      129.94395      329.32436     -32.153333      3713312.1    
   2691000   300.30237      0.89514217     0.68409352     1.5792357      189.50311      107.34762      182.38398     -101.31811      58.034057     -24.816553     -69.826737      247.19656      2.5881611      3710184      
   2692000   299.60189      0.89305417     0.68338746     1.5764416      189.41028      107.41721      182.60765      280.04296      149.59164      234.11561      0.12832232     122.10372      166.44388      3715321.4    
   2693000   300.17474      0.89476173     0.68085384     1.5756156      189.4013       107.40284      182.7371      -132.29027     -14.748748     -19.270714      98.637242      415.40668      99.971616      3717281.6    
   2694000   300.03686      0.89435073     0.68149664     1.5758474      189.43525      107.38367      182.6585      -189.97019      240.30558      55.782974      2.9607891      301.85153      62.134465      3715685.4    
   2695000   300.67219      0.89624454     0.68193901     1.5781836      189.42875      107.43332      182.55894     -103.18729      65.1984        74.346183      179.77234      307.5538       63.346676      3715249.7    
   2696000   299.89706      0.89393401     0.68442538     1.5783594      189.40576      107.46163      182.61851      103.41379     -286.96698      178.81538     -20.873835      286.03549     -119.90608      3716990.1    
   2697000   300.23403      0.89493846     0.68266246     1.5776009      189.34547      107.41544      182.66602     -26.24278      -107.23429     -169.17505     -98.477424      277.75905      102.34589      3715176.1    
   2698000   300.36646      0.89533322     0.68311352     1.5784467      189.35618      107.41507      182.57526      146.89737      213.50446      80.437435      146.87216      325.22866      19.631129      3713527.5    
   2699000   300.21529      0.89488261     0.68098616     1.5758688      189.37309      107.3516       182.54385      23.431223      90.636863     -29.517449      7.5833696      270.62809     -9.4010731      3711026.1    
   2700000   300.32313      0.89520406     0.68424309     1.5794471      189.43748      107.41228      182.57723     -43.51902      -28.74576      -33.683104      89.281263      354.82023      148.52544      3715065.3    
   2701000   300.19249      0.89481464     0.68326273     1.5780774      189.53991      107.44684      182.69434      43.838144     -108.1592      -15.373731     -98.57916       250.5105       112.81391      3720655.1    
   2702000   300.41725      0.89548459     0.68042066     1.5759052      189.39349      107.41844      182.66606      100.82866     -300.87439     -35.043676      220.38186      275.65072      99.488314      3716222.8    
   2703000   299.90903      0.89396971     0.68143192     1.5754016      189.44725      107.39968      182.66698     -118.42657     -94.533993      95.015936      122.23686      450.23834      175.07557      3716647.1    
   2704000   300.00313      0.89425018     0.68388673     1.5781369      189.42723      107.40548      182.60797     -121.41695      146.22926      34.972395     -79.059571      425.1389       44.428776      3715254.7    
   2705000   300.15996      0.89471768     0.68456204     1.5792797      189.48608      107.42913      182.55483      368.96796      327.72241      297.78602      78.107218      365.86811      103.96158      3716145.2    
   2706000   299.8353       0.89374993     0.68045741     1.5742073      189.35965      107.4226       182.57675      257.56135      430.74334      148.33004     -25.752862      381.7553       53.058688      3713885.9    
   2707000   300.50173      0.89573641     0.68268769     1.5784241      189.35409      107.42546      182.74152     -70.013266      279.03613     -16.129258      188.57977      462.54213      200.71724      3717227.3    
   2708000   299.54059      0.89287144     0.68279357     1.575665       189.44482      107.41638      182.60615     -6.6847827      60.901279      63.792741      87.200972      343.85151      85.696229      3715939.6    
   2709000   299.82631      0.89372311     0.68212653     1.5758496      189.42519      107.40657      182.63335      83.882134      65.760196      222.62212     -13.841722      467.00395      214.48147      3715768.6    
   2710000   300.16082      0.89472022     0.68432836     1.5790486      189.42671      107.45453      182.6955      -214.3143      -203.97903      120.46237      167.97987      347.70904      113.65926      3718722.7    
   2711000   299.92813      0.89402663     0.68515775     1.5791844      189.35791      107.43584      182.65251     -56.253379      120.74566      84.178235     -20.876727      339.54323      228.03566      3715851.1    
   2712000   300.20644      0.89485622     0.68378507     1.5786413      189.468        107.3855       182.57321     -131.80587      255.06846      267.55919      143.6209       344.71704     -3.1961349      3714655.7    
   2713000   300.55729      0.89590204     0.68492293     1.580825       189.54721      107.37314      182.60105     -83.581671     -225.45582      124.55545     -136.65525      355.94895      272.51272      3716347.6    
   2714000   299.56659      0.89294894     0.68205466     1.5750036      189.51925      107.4011       182.59844     -213.67587      8.6330199     -116.96999      85.34446       275.97654      87.499326      3716713.8    
   2715000   299.88726      0.89390479     0.68400128     1.5779061      189.44203      107.39538      182.62029     -159.85309     -20.943177     -45.640871      115.98055      273.0862       215.69117      3715446.4    
   2716000   299.44163      0.89257648     0.68373125     1.5763077      189.42494      107.3656       182.70098      309.72854      310.62061     -168.22843      15.837229      300.39567      94.557987      3715721.8    
   2717000   300.5019       0.89573692     0.68370466     1.5794416      189.47939      107.42342      182.70164     -230.51572      61.756831     -135.37145      171.59786      524.92478      20.853075      3718804.8    
   2718000   300.31166      0.89516987     0.68074367     1.5759135      189.42935      107.43739      182.68353      27.498087     -590.76643      20.455506     -3.8774091      363.21092      118.85852      3717937.8    
   2719000   299.88709      0.89390431     0.68406323     1.5779675      189.54883      107.44429      182.65406      82.988477     -281.5288      -34.733099      285.37087      234.2958       151.3745       3719921.7    
   2720000   300.0954       0.89452523     0.6845586      1.5790838      189.50344      107.36186      182.64797     -168.26576      127.55599     -116.00528      26.689993      276.90199      115.6117       3716053.7    
   2721000   299.97407      0.89416356     0.68425477     1.5784183      189.43317      107.39636      182.65811     -81.599202      463.36638     -106.09664      122.2586       336.75856      127.05397      3716075.7    
   2722000   300.14319      0.89466769     0.68358221     1.5782499      189.3947       107.43545      182.67341      135.38617      394.34731      45.543536     -69.075982      285.41554      150.6142       3716984.6    
   2723000   299.8123       0.89368135     0.68414108     1.5778224      189.34435      107.44084      182.65403      394.26659      11.05437       92.621755      9.7892973      353.80598      139.44735      3715788.5    
   2724000   299.8292       0.89373173     0.68288022     1.576612       189.4748       107.39444      182.70524     -38.35036       415.59836      59.08578      -28.387973      209.4372       81.885604      3717784.9    
   2725000   300.67033      0.89623899     0.68595023     1.5821892      189.48766      107.41305      182.66935      217.59268      239.08845     -2.5143046      212.18269      399.6088       25.018173      3717951.1    
   2726000   299.895        0.89392786     0.68425469     1.5781826      189.37554      107.44058      182.63864     -252.30977     -293.88642     -116.68605     -258.14112      465.73589      122.5778       3716078.5    
   2727000   299.66261      0.89323516     0.68500604     1.5782412      189.36248      107.47823      182.68016     -33.188421     -57.947767     -232.18446      14.228681      327.24327      75.967792      3717969.5    
   2728000   300.41419      0.89547549     0.68330451     1.57878        189.39331      107.40196      182.70115      230.02475     -217.50258      62.73723       21.882355      434.38805      106.01407      3716363      
   2729000   299.76066      0.89352743     0.68506633     1.5785938      189.52287      107.42188      182.62554     -82.626378     -283.46598     -135.79634     -121.50852      207.06554      29.585566      3718055.8    
   2730000   300.33654      0.89524401     0.68153146     1.5767755      189.3377       107.4064       182.64617      31.422586     -227.73829     -130.19013      174.52574      207.21221     -33.906112      3714307      
   2731000   299.72554      0.89342276     0.68320777     1.5766305      189.42522      107.42047      182.65055     -140.32779     -161.65599     -95.120368      51.241535      163.79863      74.099685      3716600.1    
   2732000   299.94518      0.89407746     0.68432189     1.5783993      189.50851      107.35286      182.68287     -126.00175      157.53687     -336.90929     -175.35682      216.72527      212.78182      3716551.5    
   2733000   300.38676      0.89539371     0.68154678     1.5769405      189.46038      107.41045      182.64972      86.744176      207.57756      85.7331        236.48401      439.44915      136.29609      3716926.2    
   2734000   300.29354      0.89511584     0.68348891     1.5786047      189.34303      107.412        182.71976     -4.0216815     -105.94124      201.7601       187.36959      370.62702      91.229988      3716102.2    
   2735000   300.03305      0.89433936     0.68474954     1.5790889      189.30915      107.48301      182.69021     -156.5744      -356.64058     -100.99528     -52.328165      416.73637      211.99555      3717292.2    
   2736000   299.94433      0.89407491     0.6838911      1.577966       189.4761       107.42269      182.59808     -123.72073      276.06839      36.084164      124.0258       391.66327      39.88297       3716607      
   2737000   299.62696      0.8931289      0.68391714     1.577046       189.42864      107.41924      182.72989     -96.921803     -201.76662      151.76607      6.4061233      486.17444      160.00629      3718239.1    
   2738000   300.04682      0.89438041     0.68305786     1.5774383      189.50102      107.46154      182.7661       78.797136      78.508186      27.454142     -62.430128      336.24852      139.22779      3721862      
   2739000   300.7376       0.89643949     0.68475773     1.5811972      189.47183      107.47434      182.74433     -59.639664     -180.59462      120.11281      81.504659      384.41889      33.906283      3721288.6    
   2740000   300.21431      0.89487967     0.68557296     1.5804526      189.37994      107.451        182.6812       184.69834      165.68535     -30.791967     -31.619618      365.07724      193.48261      3717391.6    
   2741000   299.61355      0.89308894     0.68385004     1.576939       189.58637      107.45377      182.64923     -280.6359      -206.82023      46.492176     -31.546813      336.36349      315.33034      3720888.3    
   2742000   300.77703      0.89655703     0.68653603     1.5830931      189.50712      107.4601       182.64447      112.56244     -423.951       -121.67245      148.35723      345.7485       100.07665      3719454.9    
   2743000   299.828        0.89372817     0.68441297     1.5781411      189.54663      107.44641      182.63351     -256.89346     -206.65551     -16.340763     -42.46293       414.98035      15.805114      3719533.5    
   2744000   300.53129      0.89582453     0.68547102     1.5812956      189.50394      107.40616      182.74765      170.64212      133.89129     -64.571084     -178.2005       387.2685       10.918831      3719625.7    
   2745000   299.69812      0.89334102     0.68536986     1.5787109      189.4414       107.39469      182.78867      75.1454        64.566489     -271.14466      12.699416      360.5158       161.03194      3718835.5    
   2746000   300.38801      0.89539743     0.68253004     1.5779275      189.40752      107.4058       182.6362      -86.009723     -101.09664     -62.266447     -110.47275      489.27076      33.545404      3715453.5    
   2747000   300.40174      0.89543836     0.68172959     1.5771679      189.46665      107.40236      182.68169     -373.73862      123.9625      -177.48385     -118.03799      193.62568      114.67139      3717419.9    
   2748000   299.85071      0.89379586     0.68642466     1.5802205      189.44156      107.43547      182.64522      125.48069     -277.2722       56.507881      4.5855972      215.10348      103.44378      3717331.1    
   2749000   300.73363      0.89642767     0.68698428     1.5834119      189.50031      107.40526      182.57334      209.37423      137.91218      132.97077      21.858094      373.5143      -8.7300973      3715975.5    
   2750000   300.34323      0.89526395     0.68430438     1.5795683      189.4579       107.42203      182.69668      221.10604      271.50879      170.29537      27.795095      161.50931      108.65539      3718233.9    
   2751000   300.21386      0.89487832     0.68489282     1.5797711      189.3482       107.4597       182.81202      8.2708692      27.630784      43.269084     -15.61708       273.84292      23.464293      3719731.3    
   2752000   299.67144      0.89326149     0.68412102     1.5773825      189.45185      107.43569      182.68654      173.98001      75.956378      3.010093       19.508518      351.46249      64.154534      3718381.8    
   2753000   300.00199      0.89424679     0.68338901     1.5776358      189.38032      107.42009      182.68577     -234.68443     -280.07601     -123.00843     -118.26782      427.9046       110.17833      3716422.3    
   2754000   299.87711      0.89387456     0.68441797     1.5782925      189.3702       107.43359      182.80964     -89.378748      100.7535      -280.51223      136.4033       361.22868      176.11707      3719211      
   2755000   300.09456      0.89452273     0.68397824     1.578501       189.4193       107.43547      182.7086      -173.81096     -542.99749      56.260213      72.124011      319.36206      328.01651      3718184.1    
   2756000   299.27547      0.89208118     0.68424368     1.5763249      189.45001      107.3891       182.63036     -131.17167     -286.92313     -106.61107      184.29498      256.75596      54.309069      3715590.1    
   2757000   300.07169      0.89445455     0.68478532     1.5792399      189.50118      107.40831      182.70004     -50.2599        194.29679      147.68232      135.6676       318.71973      113.46904      3718676.9    
   2758000   300.24804      0.89498022     0.68341703     1.5783972      189.40582      107.42457      182.76451      7.7855942      187.77695      99.112875      25.854         198.06101      90.484507      3718680.1    
   2759000   300.10204      0.89454502     0.68238839     1.5769334      189.36065      107.39025      182.59599     -261.35285     -347.66549     -35.427285     -114.15813      308.45951      168.32915      3713178.5    
   2760000   300.0952       0.89452463     0.68226132     1.5767859      189.42055      107.40241      182.67039      79.334974      170.35752     -38.20687       156.8733       463.61283      77.557077      3716287.1    
   2761000   299.81846      0.89369971     0.68294982     1.5766495      189.4881       107.41112      182.6114      -123.17194     -38.82569       26.113275      121.37743      370.4784       148.20922      3716713.2    
   2762000   299.87407      0.89386548     0.68587539     1.5797409      189.44728      107.42826      182.72399     -9.3906735      202.39277      147.22359     -20.745024      379.08074      203.66516      3718797.2    
   2763000   300.33879      0.89525072     0.68306363     1.5783144      189.38642      107.40541      182.64034     -44.900006     -188.64587     -109.43686     -41.808034      384.94964      142.56826      3715110.3    
   2764000   299.63779      0.8931612      0.68532071     1.5784819      189.43283      107.39729      182.64864      67.008752     -190.80538     -109.70272      99.796938      278.12958      151.01813      3715908.5    
   2765000   299.30676      0.89217443     0.6810598      1.5732342      189.50661      107.41538      182.62119     -272.25729     -80.137103     -345.44731      21.48655       342.26087      0.25292594     3717423.1    
   2766000   299.96104      0.89412474     0.6837653      1.57789        189.43046      107.42327      182.6528      -96.994113      41.830413      81.979056     -52.986354      353.70319      212.85947      3716845.6    
   2767000   300.35359      0.89529485     0.68453165     1.5798265      189.47648      107.41551      182.76965      320.78216      48.379956      162.11549     -90.886887      382.71661      114.47165      3719858.4    
   2768000   299.93059      0.89403396     0.68428697     1.5783209      189.44403      107.43132      182.79552      465.68585      270.67644     -18.715117      247.1392       374.35949      164.26997      3720295      
   2769000   299.8804       0.89388435     0.68400435     1.5778887      189.46905      107.41107      182.70263      267.47025      212.98923      73.234957     -6.7795022      336.73467      171.11317      3718194.5    
   2770000   300.09704      0.89453011     0.68527936     1.5798095      189.46241      107.39517      182.68012     -240.92631      71.976275     -28.185297     -60.51818       271.61957      142.36913      3717055.9    
   2771000   299.62779      0.89313137     0.68410001     1.5772314      189.47015      107.42696      182.69609     -163.88641     -191.54539     -142.31597     -75.05696       402.4728       139.74294      3718633      
   2772000   300.02285      0.89430898     0.68628688     1.5805959      189.43242      107.40702      182.87245      135.56774     -319.63107     -272.92098      133.09784      329.27144      83.677682      3720790.8    
   2773000   299.4607       0.8926333      0.68335537     1.5759887      189.54058      107.40344      182.65874     -184.18964     -143.08732     -149.91973     -0.44523764     264.35605      195.92242      3718440.6    
   2774000   300.04674      0.89438017     0.6861429      1.5805231      189.62353      107.37853      182.78216     -282.71347     -174.02438      201.63264     -61.349329      332.09323      81.548436      3721718.2    
   2775000   300.4607       0.89561411     0.68520851     1.5808226      189.49522      107.41973      182.74409      410.80317      104.44445      16.094834     -164.96512      338.88735      33.288193      3719851.8    
   2776000   299.94372      0.89407308     0.68642349     1.5804966      189.56907      107.42148      182.79039     -237.40502      18.401175     -75.791697     -51.058243      350.00792      63.988165      3722305.1    
   2777000   299.81302      0.8936835      0.68498723     1.5786707      189.48006      107.42123      182.75262      114.88071      4.7835271      71.242357     -62.899286      320.53276      128.89034      3719779.8    
   2778000   300.83699      0.89673577     0.68641734     1.5831531      189.49151      107.42639      182.67465     -199.53734     -80.179184      38.040499      62.034667      388.59844      146.11437      3718596.3    
   2779000   299.76465      0.89353933     0.685856       1.5793953      189.38445      107.43503      182.77443      310.99854      11.614688     -90.053619     -51.156781      403.82963      89.632221      3718824.3    
   2780000   299.79776      0.89363802     0.68372068     1.5773587      189.56103      107.41707      182.69529     -68.12826      -130.82932     -23.211145      108.51605      469.8584       70.576032      3720058      
   2781000   299.98682      0.89420158     0.68623732     1.5804389      189.59696      107.43214      182.77026      18.152272     -34.839883     -130.38648     -83.769299      330.31121      62.890469      3722811.9    
   2782000   300.08782      0.89450265     0.68422751     1.5787302      189.52416      107.42252      182.79295     -154.66659      25.537632     -160.1026      -163.84957      333.00442      36.636325      3721511.2    
   2783000   300.07533      0.8944654      0.68640518     1.5808706      189.52064      107.48134      182.8319       114.85616      35.038602     -127.4332      -2.9366478      401.05087      104.39074      3724273.7    
   2784000   299.79118      0.89361841     0.68609706     1.5797155      189.53476      107.46232      182.7491       73.810381     -315.32453      57.360424     -74.690645      236.06527      175.44577      3722205.1    
   2785000   300.26564      0.89503268     0.68527859     1.5803113      189.57092      107.4521       182.77429     -163.65923      168.59268      26.44164       4.773963       350.56423     -6.3660948      3723074.6    
   2786000   299.59921      0.89304617     0.68568351     1.5787297      189.43387      107.4699       182.8221      -118.04958     -198.4361       47.304911      230.36816      249.76514      208.83555      3721972.8    
   2787000   299.75078      0.89349797     0.68559472     1.5790927      189.48015      107.4002       182.70841      32.645026     -124.05602      237.01157      108.2283       464.89707      132.41719      3718153.8    
   2788000   300.41698      0.8954838      0.68686828     1.5823521      189.46594      107.45573      182.77506      189.16518      82.086624      219.2404      -213.12548      367.26726      88.818657      3721154.4    
   2789000   300.1384       0.89465341     0.68495456     1.579608       189.50487      107.43568      182.79357      176.56562      26.593018      103.07549      27.733516      304.48658      129.43791      3721601.1    
   2790000   300.32752      0.89521713     0.6862533      1.5814704      189.41281      107.4551       182.82669     -4.9293533     -211.01627     -1.3623248     -132.61899      343.58434      100.41246      3721139.9    
   2791000   300.17284      0.89475606     0.68559312     1.5803492      189.52444      107.43697      182.79751     -51.850483      12.861952      9.270176       99.641676      371.32941      27.578363      3722110.4    
   2792000   299.91138      0.8939767      0.68752817     1.5815049      189.58796      107.42272      182.78066     -156.66151     -21.766922     -147.1159      -246.36801      321.82027      61.982492      3722521      
   2793000   299.83404      0.89374618     0.68606521     1.5798114      189.56552      107.45066      182.76015     -128.03898     -65.268245     -129.47516      39.098048      346.00822      194.55228      3722630.5    
   2794000   300.87313      0.8968435      0.68551536     1.5823589      189.5944       107.44607      182.83247     -71.985594     -239.81994     -180.78355      43.201864      216.89252      12.399598      3724511.9    
   2795000   300.39289      0.895412       0.68774253     1.5831545      189.62858      107.4175       182.86928      139.45609      414.84624      104.38683      59.671657      371.82977      61.785704      3724942.6    
   2796000   299.52341      0.89282023     0.68612107     1.5789413      189.6457       107.39322      182.83987     -30.614835     -118.7128       34.911165     -10.693947      315.77387      19.440934      3723838.1    
   2797000   299.15629      0.89172592     0.68584962     1.5775755      189.60369      107.38976      182.89436     -151.03674     -29.037487     -126.70857     -81.485031      343.80095      139.85432      3724002.3    
   2798000   300.35535      0.89530008     0.68688742     1.5821875      189.52106      107.40054      182.81135      78.966458      307.72466      45.118826     -104.84068      344.56553     -12.027692      3721063.6    
   2799000   300.09623      0.89452769     0.68488221     1.5794099      189.59682      107.43965      182.79594     -3.8074993      398.78342      42.90047       9.175777       283.24191      163.27861      3723592.7    
   2800000   299.8649       0.89383815     0.68514804     1.5789862      189.5311       107.44974      182.81477     -122.73088     -132.37937     -135.39586     -80.332652      494.04327     -23.527313      3723035.2    
   2801000   300.20395      0.89484878     0.68741787     1.5822666      189.62474      107.42693      182.9384       99.008463      75.183186     -47.472945      65.489861      338.57905      189.82697      3726602.5    
   2802000   299.91102      0.89397562     0.68877728     1.5827529      189.70426      107.41303      182.86533     -221.66323     -33.329588     -25.072717      90.352661      385.15007      77.431703      3726193.6    
   2803000   299.89808      0.89393707     0.6865879      1.580525       189.62755      107.42058      182.80504     -311.68834      16.289996     -84.33358       84.638181      253.95446      110.72867      3723720.6    
   2804000   299.5012       0.89275403     0.68569493     1.578449       189.66084      107.43682      182.74304      179.9044       99.615073      161.27643      324.09543      206.6167       11.662098      3723674.1    
   2805000   300.20918      0.89486438     0.68510941     1.5799738      189.53116      107.41791      182.90266      31.540443      26.858321     -78.964673      122.13967      517.45214      3.0376753      3723722.9    
   2806000   300.18143      0.89478165     0.68412061     1.5789023      189.54752      107.43926      182.8407      -222.31026     -18.077827      139.96234      145.53963      419.23109      52.45372       3723522.4    
   2807000   299.69361      0.89332758     0.6878478      1.5811754      189.60523      107.46845      182.86144     -23.833342      133.40727     -158.73041     -46.239981      269.3804       131.48697      3726090.7    
   2808000   299.83225      0.89374084     0.68711804     1.5808589      189.69195      107.3924       182.80055     -76.175537      108.58859     -88.189914     -261.48896      239.64108      148.86499      3723916.8    
   2809000   300.81791      0.89667889     0.68825425     1.5849331      189.57353      107.44736      182.81919      260.59745      67.402304      62.250739     -166.20881      169.79284      70.417824      3723876.3    
   2810000   299.74822      0.89349035     0.68696573     1.5804561      189.55664      107.45471      182.81374     -162.49609      217.29814      254.6889       99.432159      309.45394     -65.337731      3723688.1    
   2811000   300.37998      0.89537351     0.68647038     1.5818439      189.57068      107.47471      182.84129      61.706717      54.590558      7.0662073     -84.184364      403.604        176.46886      3725218.4    
   2812000   300.26362      0.89502665     0.68632474     1.5813514      189.52143      107.41163      182.8238      -38.429355      128.59246     -19.69295       117.07942      376.83378      182.28482      3721708.6    
   2813000   300.32632      0.89521355     0.68453677     1.5797503      189.45581      107.44617      182.75836      70.150374     -282.707       -52.011407     -108.40469      226.87414      103.80845      3720284.2    
   2814000   300.55726      0.89590193     0.68589803     1.5818         189.49585      107.39738      182.79609      101.83463     -12.070711      126.59148     -5.246376       331.10542      96.770997      3720148.6    
   2815000   299.52346      0.89282039     0.68438198     1.5772024      189.51646      107.42834      182.8729      -57.538339     -55.226277     -208.59523      39.604987      376.62337      77.195155      3723189.4    
   2816000   300.03185      0.89433579     0.6858267      1.5801625      189.63955      107.43285      182.77378     -8.0333515     -173.55528     -199.78653     -38.886886      267.87156      80.220193      3723744.7    
   2817000   300.40771      0.89545616     0.68608629     1.5815425      189.55663      107.43503      182.78362     -340.81774     -102.57081     -44.012838      126.02316      223.20756      134.76927      3722392.6    
   2818000   300.0597       0.89441881     0.6846534      1.5790722      189.41696      107.40386      182.74673      366.57753      196.18579      22.939675     -139.66657      299.08689      188.11519      3717820.1    
   2819000   299.85325      0.89380342     0.68451888     1.5783223      189.47048      107.44258      182.74667     -7.1317419     -194.53029      98.521678      15.022424      434.34802      113.50872      3720210.1    
   2820000   300.02841      0.89432554     0.68574545     1.580071       189.48194      107.44883      182.83804      89.011151      121.43579     -71.172673     -233.36649      215.14798      130.28502      3722511.5    
   2821000   300.24509      0.89497143     0.68511806     1.5800895      189.34283      107.40588      182.79401     -0.89528289    -88.746548     -96.222845      200.4472       379.35265      136.74333      3717396.6    
   2822000   300.17831      0.89477236     0.68588361     1.580656       189.4644       107.39769      182.6901      -412.52848      108.35646     -9.0416309     -236.2697       287.75991     -19.032743      3717385.2    
   2823000   300.67051      0.89623951     0.68716544     1.5834049      189.55622      107.41273      182.76324     -217.15593     -34.273351      113.01439     -102.44118      401.11071      116.45557      3721196.9    
   2824000   300.16772      0.8947408      0.68610282     1.5808436      189.48742      107.40168      182.77131      41.282418      184.08982     -98.0227       -17.522391      275.14561      153.1847       3719628      
   2825000   300.09386      0.89452064     0.68380133     1.578322       189.46766      107.45145      182.70798     -52.000324     -17.736113     -49.942615      159.88723      346.44726      176.28503      3719673.9    
   2826000   299.83584      0.89375153     0.68471756     1.5784691      189.44363      107.44006      182.72928     -294.18143      4.2751407     -130.1981      -32.715157      239.74047      174.12674      3719241.4    
   2827000   300.3038       0.89514643     0.68367804     1.5788245      189.40864      107.4457       182.67895      17.990506      100.67372      57.992008     -204.21769      135.30286      142.54929      3717725.4    
   2828000   300.1281       0.8946227      0.68626588     1.5808886      189.46637      107.49845      182.72008     -320.88247     -675.53799     -178.45672     -113.0838       145.53469      138.36271      3721522.1    
   2829000   299.27503      0.89207986     0.68553248     1.5776123      189.35172      107.43308      182.61358      203.37595      56.176323      175.52558      79.184545      467.86329      101.22083      3714842.1    
   2830000   300.21679      0.89488708     0.68247204     1.5773591      189.42194      107.39385      182.60483      61.453792      264.52344      18.513272     -21.144633      299.01571     -5.3557292      3714684.7    
   2831000   299.70769      0.89336954     0.68445317     1.5778227      189.39678      107.3835       182.67897     -182.00138      211.98211      49.686892      46.750005      309.95073     -64.812687      3715341.1    
   2832000   300.09013      0.89450951     0.68268868     1.5771982      189.3521       107.4209       182.58983     -289.79367      31.688633      5.1976821      154.57767      413.95243     -29.027751      3713945.1    
   2833000   300.34877      0.89528048     0.68044031     1.5757208      189.3063       107.40834      182.54331      429.90435      147.04512     -199.16781      87.53055       193.12639      1.3907023      3711666.8    
   2834000   300.46778      0.89563521     0.68082956     1.5764648      189.27055      107.45065      182.64068     -208.719       -353.14028     -67.942874     -100.06915      273.39457      102.3384       3714408.2    
   2835000   299.75762      0.89351839     0.68368934     1.5772077      189.28238      107.43429      182.51575      142.95232     -23.081668      143.32916     -1.4847167      240.32642     -34.372991      3711534.2    
   2836000   300.21775      0.89488993     0.68333153     1.5782215      189.28866      107.4686       182.5516       298.64863      131.72994      133.76162      22.211075      277.4334       94.486548      3713571.8    
   2837000   299.42462      0.89252576     0.68230847     1.5748342      189.35967      107.42368      182.52876      134.93446     -60.86843       103.33071     -99.500879      412.53195      109.37439      3712947.4    
   2838000   299.31992      0.89221368     0.6841757      1.5763894      189.37204      107.38021      182.56455      9.9611601      235.52103     -156.11533      52.064677      212.96333     -22.699673      3712415.4    
   2839000   300.268        0.89503971     0.68355799     1.5785977      189.30415      107.44549      182.56257     -245.73747      269.25128      71.46772      -67.765108      347.13708      47.283551      3713300.1    
   2840000   300.05484      0.89440433     0.68296893     1.5773733      189.25699      107.40366      182.63729     -24.698792      305.34806     -50.253226      18.270003      355.14109      102.95824      3712448.8    
   2841000   299.74583      0.89348323     0.68374256     1.5772258      189.31452      107.43553      182.47699     -210.7834      -219.13154     -40.567684      2.5492147      369.95102     -2.9477386      3711418.8    
   2842000   300.0935       0.89451955     0.6835148      1.5780344      189.27771      107.44301      182.50669      213.38542      137.20723      4.2757801      21.92507       409.81375      93.82884       3711559.3    
   2843000   299.4578       0.89262466     0.68411134     1.576736       189.27376      107.45063      182.60989      15.504087     -262.97483     -166.77846     -26.952831      250.56375      48.982322      3713844.3    
   2844000   300.28642      0.89509461     0.68331739     1.578412       189.18787      107.49086      182.59043      80.474958     -80.57536      -229.06374     -182.16978      105.17838      120.81943      3713152.8    
   2845000   300.11174      0.89457392     0.68295689     1.5775308      189.21544      107.4617       182.54399     -60.540771     -313.0127      -84.174003     -168.97084      324.37562      18.871423      3711742.5    
   2846000   299.94112      0.89406534     0.68235118     1.5764165      189.16222      107.49838      182.63878      474.22624     -46.249587     -143.14644     -114.77246      222.36108      4.7106488      3713892.5    
   2847000   299.57949      0.89298741     0.68205197     1.5750394      189.2384       107.42089      182.5125       137.28061     -101.60156     -3.6148698     -193.00513      284.96787     -3.0229384      3710142.9    
   2848000   300.71602      0.89637516     0.68013507     1.5765102      189.24688      107.45173      182.39474     -160.91203      173.60696      75.474656      110.94435      241.67593     -191.91026      3708979.8    
   2849000   300.28483      0.89508988     0.68185076     1.5769406      189.23         107.44526      182.4261       215.00365      327.47671     -152.16281      52.53253       202.7876       81.483609      3709063.3    
   2850000   299.83726      0.89375577     0.68110968     1.5748655      189.25079      107.49416      182.53651      43.37928       219.75081      53.849947     -19.195397      257.86198      207.96604      3713405      
   2851000   300.42281      0.89550118     0.68066011     1.5761613      189.2221       107.42496      182.52626      77.754922      70.446904      46.612509      234.47623      125.16122      81.681931      3710243.6    
   2852000   299.66463      0.89324119     0.68320065     1.5764418      189.25541      107.45229      182.41758     -209.42173     -193.10699     -102.78626     -186.36967      267.65247     -15.686016      3709630.4    
   2853000   300.38859      0.89539916     0.68077758     1.5761767      189.20594      107.42856      182.34718      197.70972     -177.87398      93.316893      200.35634      345.63536      68.206011      3706410.9    
   2854000   299.53233      0.89284684     0.68170239     1.5745492      189.20779      107.45553      182.40263      85.119059     -52.258193     -116.01887     -101.40046      125.42771      52.753194      3708504.7    
   2855000   300.73799      0.89644065     0.68099452     1.5774352      189.07917      107.43292      182.46781      239.04996     -29.291978      256.48555     -156.61233      84.247532      77.076552      3706528.3    
   2856000   300.60118      0.89603285     0.68131193     1.5773448      189.1396       107.41293      182.42893     -41.086609     -375.56194      10.021821      6.7667316      194.42666      242.84905      3706233.1    
   2857000   299.39239      0.89242969     0.67926424     1.5716939      189.16027      107.39322      182.49508     -219.13179      243.2317      -147.09388      140.07143      167.77747     -39.483452      3707301.8    
   2858000   300.33414      0.89523687     0.68179322     1.5770301      189.15184      107.47983      182.44179     -83.000845     -222.55232      50.879001      56.049259      172.28453      131.15925      3709043      
   2859000   299.75696      0.89351641     0.68161152     1.5751279      189.1119       107.42034      182.3559      -356.63762      126.21679      123.52935     -168.26415      168.72445     -96.314477      3704462.3    
   2860000   300.06689      0.89444025     0.67918329     1.5736235      188.9728       107.4418       182.3439       57.169077      29.336583      103.16224      62.868245      140.90606     -132.01346      3702233.6    
   2861000   300.33626      0.89524319     0.68109498     1.5763382      189.06445      107.44591      182.48816      251.62608      22.31557      -45.370029      103.58698      116.72157     -24.541392      3707101.2    
   2862000   300.62266      0.89609689     0.68142833     1.5775252      189.17976      107.4356       182.47884     -101.64289     -224.06177     -294.68828     -10.290006      249.76593      0.94158152     3708816.8    
   2863000   299.86312      0.89383285     0.6819393      1.5757721      189.15074      107.42513      182.45031      79.588453     -13.88818      -141.80489      59.625031      423.30425      36.289153      3707306.7    
   2864000   300.35538      0.89530016     0.68125656     1.5765567      189.11172      107.43259      182.47331      102.90213     -217.22638      374.92802      159.07109      171.9467      -26.487997      3707267      
   2865000   300.3436       0.89526506     0.68006472     1.5753298      189.22224      107.41696      182.3765      -0.20899019     288.59767     -49.058858      309.14163      342.34132      189.22542      3706925.8    
   2866000   300.42757      0.89551537     0.68103767     1.576553       189.18896      107.43494      182.43774     -229.50604     -34.856581      56.317803     -169.28186      113.44587      11.918807      3708139.1    
   2867000   300.38845      0.89539876     0.68063848     1.5760372      189.25657      107.42112      182.54354     -71.977661     -184.19358     -87.592487      104.90099      171.5271       19.76158       3711138      
   2868000   299.19192      0.89183214     0.67790008     1.5697322      189.15416      107.39361      182.44138      37.30237       108.07844     -54.698861     -133.63896      164.6732      -5.4537117      3706104.9    
   2869000   299.77287      0.89356383     0.68082268     1.5743865      189.06486      107.46949      182.41668      269.11824     -314.85315     -150.93125      32.91035       194.26915     -15.410791      3706470.4    
   2870000   300.19009      0.89480749     0.6802052      1.5750127      189.05789      107.48181      182.36613      324.91784      10.066986     -25.746932      44.720092      257.94365      46.673627      3705731.5    
   2871000   300.79526      0.89661137     0.6806851      1.5772965      189.05154      107.49483      182.3834      -4.460034      -138.12183     -36.473311     -159.02593      382.9331       211.40805      3706407      
   2872000   299.52167      0.89281506     0.68033085     1.5731459      189.14863      107.46929      182.2901      -43.681482     -25.668494     -107.5915       102.41709      172.75228      46.315244      3705533      
   2873000   299.60665      0.89306837     0.68109813     1.5741665      189.17056      107.44256      182.49829      398.94735      31.865194     -61.028674     -149.14942      257.96776      78.595873      3709272.2    
   2874000   300.24544      0.89497247     0.68047904     1.5754515      189.14929      107.46532      182.48033     -94.129951      101.02448     -30.606591      156.68926      206.10555      152.11956      3709275.6    
   2875000   300.83542      0.89673108     0.6789098      1.5756409      189.11665      107.37473      182.47677      223.04044      203.13208     -117.67035     -235.92377      239.47029      136.26509      3705437.2    
   2876000   299.47738      0.89268304     0.67931888     1.5720019      189.06723      107.40541      182.47411     -163.30662     -57.59411       126.918        31.998113      190.71463      124.91392      3705473.1    
   2877000   300.22549      0.89491299     0.68142006     1.576333       189.05196      107.44849      182.43545     -281.38297      191.51621      197.60354     -147.86731     -12.375833      253.44901      3705874.8    
   2878000   300.17017      0.8947481      0.67984706     1.5745952      189.16797      107.45648      182.38566     -147.75159     -219.82444     -4.4923506      67.258463      307.03812      20.23889       3707412.3    
   2879000   299.4865       0.89271021     0.68230307     1.5750133      189.08409      107.44594      182.44733      288.23792     -83.115177     -63.610183     -1.0519023      175.55381      68.28503       3706658      
   2880000   299.8947       0.89392698     0.68093433     1.5748613      189.06173      107.45245      182.36492      121.80076      25.104676      106.87997      44.914281      298.55072      60.85888       3704769.9    
   2881000   300.97944      0.89716038     0.67905183     1.5762122      189.09314      107.39319      182.3861       231.28226     -165.8138      -3.1025195      140.17098      252.0696       83.809356      3703772.2    
   2882000   299.91654      0.89399208     0.68277847     1.5767705      189.14396      107.47612      182.4422      -212.35042      176.04953     -284.82205      112.19331      78.190198     -63.097327      3708768.6    
   2883000   299.44959      0.8926002      0.6791087      1.5717089      189.06448      107.45762      182.45431     -72.69429       53.606994     -127.37929      52.646353      48.060933     -3.1466288      3706818      
   2884000   300.3785       0.89536911     0.68096281     1.5763319      189.14457      107.41026      182.43719      143.30163      264.87936      58.078552     -125.23639      134.35967      7.2098503      3706406.3    
   2885000   299.96172      0.89412675     0.67811248     1.5722392      189.1413       107.40607      182.32021     -163.8447       60.653986      164.59049     -25.158991      203.17759     -30.493494      3703821.2    
   2886000   300.02837      0.89432542     0.68143208     1.5757575      189.07585      107.40709      182.25962      295.52522      130.61479      414.55043      45.447712      216.44966      188.04993      3701344.3    
   2887000   299.34469      0.89228752     0.67860174     1.5708893      189.08038      107.38876      182.40935     -45.634672      121.64107     -64.874498     -29.224168      275.2185       141.29778      3703841.5    
   2888000   300.20355      0.8948476      0.68038461     1.5752322      189.06182      107.43402      182.43798     -233.93737      119.87413      99.011026     -85.280656      130.54494      211.33793      3705620.5    
   2889000   299.92519      0.89401787     0.68016702     1.5741849      189.10316      107.42745      182.50606      55.928984      110.81001      84.139072      6.6024621      228.80483      62.049596      3707586.8    
   2890000   300.43181      0.895528       0.6785174      1.5740454      189.19638      107.40416      182.41627      171.58858     -71.652189      109.79132     -137.93177      290.21244      50.869816      3706785.9    
   2891000   300.0527       0.89439794     0.67957742     1.5739754      189.12441      107.4366       182.4531       130.3655      -80.326005     -123.26408      8.6883574      197.71802      82.866054      3707243.4    
   2892000   300.46864      0.89563777     0.67969372     1.5753315      189.058        107.44483      182.38088      443.94271      76.853061      54.813488      90.575661      165.76184     -128.33479      3704758.5    
   2893000   300.16355      0.89472838     0.68141128     1.5761397      189.21651      107.43531      182.35351     -83.658356     -33.351961     -29.9874        68.269927      335.26664      36.778602      3706979.5    
   2894000   300.27927      0.89507331     0.6796886      1.5747619      189.12055      107.45724      182.42896     -311.0367      -274.93992     -66.037509      246.7186       133.66913      130.32091      3707389.3    
   2895000   300.142        0.89466415     0.67926005     1.5739242      189.10973      107.45373      182.48443      97.625796      1.1876741      31.86839       169.62539      193.33204     -76.063418      3708183      
   2896000   299.75218      0.89350215     0.68039338     1.5738955      189.0707       107.42415      182.37736     -191.3083      -102.96782     -66.785621      34.61448       295.66898      108.72144      3704222.7    
   2897000   299.98192      0.89418696     0.68093127     1.5751182      189.01893      107.43217      182.34531      228.62302      95.921235      104.41929     -29.217448      272.2826      -71.902062      3702834      
   2898000   299.61237      0.89308541     0.68016606     1.5732515      189.00913      107.44643      182.33301      324.65281      105.35445     -44.345073      22.751783      153.07522      97.057669      3702883.9    
   2899000   300.182        0.89478335     0.68083005     1.5756134      188.98123      107.45731      182.45439      438.3266       93.052454     -113.18948     -32.873573      195.28705      28.326264      3705177.1    
   2900000   300.55244      0.89588756     0.67869692     1.5745845      188.97778      107.46434      182.43834      125.12744      3.148497       42.907094     -38.001196      311.48443     -31.685146      3705025.7    
   2901000   300.36843      0.89533908     0.67976227     1.5751013      188.96173      107.43103      182.395       -49.999577      49.877548     -265.9743      -6.6519656      196.87116      125.83092      3702682.8    
   2902000   299.72261      0.89341403     0.68016213     1.5735762      188.98185      107.4571       182.24178     -175.44864      266.86604      121.89405      86.627624      271.55298     -8.953767       3700864.1    
   2903000   300.16423      0.89473039     0.6767615      1.5714919      189.09759      107.48038      182.38855     -141.4504      -83.966927     -76.083063      47.286755      214.08053      1.9049574      3706916      
   2904000   300.15994      0.89471762     0.68150356     1.5762212      189.02192      107.4174       182.3068       200.86532     -29.101648      117.04842      22.028696      185.39206      221.31384      3701601.6    
   2905000   300.268        0.89503972     0.68069055     1.5757303      189.12768      107.4608       182.31503      47.459359     -181.67992     -98.352808     -175.97328      145.39431      3.9751734      3705336.5    
   2906000   299.81748      0.8936968      0.68132852     1.5750253      188.98714      107.44237      182.4571       65.863475      192.95214      89.527764     -48.227034      69.751955     -28.235881      3704832.8    
   2907000   300.55753      0.89590275     0.67882585     1.5747286      188.94904      107.46411      182.34122     -154.88484     -235.73618      147.49989      359.26349      183.68349      145.94942      3702482.2    
   2908000   300.13672      0.89464838     0.67923823     1.5738866      189.07356      107.44666      182.39558      63.770714      70.980835      145.58077     -205.51946      121.06282      60.49476       3705425      
   2909000   300.26286      0.8950244      0.6772841      1.5723085      188.95795      107.44462      182.3237      -7.2130974      334.3889       141.78559      10.41878       232.99464     -123.85973      3701629.7    
   2910000   300.44456      0.89556601     0.68068319     1.5762492      189.01566      107.44098      182.37828      37.843939      84.172936      160.5689      -107.78968      192.62333      56.55454       3703743.2    
   2911000   299.733        0.89344498     0.67771844     1.5711634      189.0217       107.42105      182.33485      200.44143      4.6292305     -65.248515     -120.44855      271.89375      67.771761      3702292.8    
   2912000   300.05544      0.89440611     0.68057525     1.5749814      189.13186      107.43499      182.40493     -279.84494      253.78269     -35.915085     -102.21065      258.18333      71.705167      3706354.9    
   2913000   299.76972      0.89355444     0.68088229     1.5744367      189.06149      107.4351       182.47326     -39.864629      112.23697     -100.17704      81.863249      256.0672      -130.84375      3706367.6    
   2914000   299.89182      0.89391839     0.68122693     1.5751453      189.06558      107.41286      182.32991     -220.87262      88.589662      0.47347482    -124.65958      126.10776      134.35989      3702769.4    
   2915000   300.00896      0.89426756     0.67878731     1.5730549      189.05925      107.45968      182.27854     -96.274827      75.673908     -58.412718      313.31826      244.38592      88.543706      3703215.6    
   2916000   300.42419      0.8955053      0.68044552     1.5759508      189.0557       107.43275      182.38744      325.14765      123.58329      134.41287      72.26027       312.61771      21.98546       3704430      
   2917000   300.09047      0.89451052     0.67820556     1.5727161      188.93329      107.41524      182.29486      283.63224      137.16217      106.77209     -75.960766      199.00678     -28.87828       3699549.2    
   2918000   299.8316       0.89373889     0.67715038     1.5708893      189.01607      107.426        182.39294      105.52131      396.5086       37.443209      7.5233281      204.38715     -125.23072      3703532.3    
   2919000   299.86324      0.89383322     0.67704668     1.5708799      189.0118       107.41979      182.33162      157.36112      442.13297      256.06494      54.975189      154.9459      -25.169639      3701989.4    
   2920000   300.14759      0.89468078     0.68028345     1.5749642      188.87082      107.45664      182.48676      35.175641      200.23156     -1.234478       110.11674      204.04213     -75.909576      3703646.1    
   2921000   300.05331      0.89439975     0.67845227     1.572852       189.03225      107.43722      182.33467      43.313975      210.48025     -98.300531      71.938105      84.429308      67.649306      3703053      
   2922000   300.34214      0.89526071     0.67842346     1.5736842      189.04988      107.4775       182.25524      117.50407     -10.92014      -49.633621     -34.243306      125.04791      27.076782      3703172.8    
   2923000   299.79564      0.89363169     0.67903719     1.5726689      189.05796      107.43787      182.36069      358.14463      205.26702      240.97479      14.711051      207.48637     -5.7261207      3704107.5    
   2924000   299.43386      0.89255331     0.67729694     1.5698503      189.0763       107.48205      182.33475     -1.7797547     -471.66143     -24.475218      22.898091      116.73305      8.2177513      3705463      
   2925000   299.87344      0.8938636      0.68016825     1.5740318      189.03619      107.43281      182.37427      163.02131     -306.64611      109.2907       87.156063      231.74616      19.294514      3703782.5    
   2926000   299.43813      0.89256602     0.68034233     1.5729084      188.92225      107.43623      182.36233      251.702        172.89241     -190.06707      137.33728      322.30993      29.629159      3701425.4    
   2927000   300.51368      0.89577205     0.6795261      1.5752982      188.91753      107.42397      182.27166      45.141772     -79.489359     -42.094026     -92.15906       296.43249     -25.078209      3699070.4    
   2928000   300.10481      0.89455326     0.67751475     1.572068       189.05515      107.42213      182.14312     -183.07403     -36.140339      138.59751      144.71477      178.10882     -76.046025      3699091.2    
   2929000   299.89627      0.89393167     0.67586627     1.5697979      188.9705       107.41392      182.37709      41.576988     -223.17762     -1.1253275     -157.51784      302.00001      2.4264888      3701901.5    
   2930000   300.37114      0.89534716     0.68110162     1.5764488      188.96016      107.42361      182.46311      219.70601      153.67511     -134.14101      181.8503       227.47426      11.38464       3703779      
   2931000   299.64853      0.89319321     0.67924957     1.5724428      189.12439      107.40621      182.28825     -189.89203      30.710157      36.33275       196.6463       149.56385      46.421534      3702845.6    
   2932000   300.11834      0.8945936      0.6788602      1.5734538      188.9851       107.45781      182.27485      99.628445      285.34179     -11.72256       118.62543      391.17657      125.68634      3701623.9    
   2933000   299.84454      0.89377748     0.67910124     1.5728787      188.99487      107.45852      182.28349      144.3884       102.52117     -79.55403       181.95247      178.8519      -66.620075      3702015.3    
   2934000   299.89589      0.89393052     0.67665844     1.570589       188.94623      107.42914      182.29166      93.165547      65.771835     -19.539514     -199.26214      231.11839      74.616858      3700216.5    
   2935000   300.65476      0.89619258     0.67927825     1.5754708      188.98646      107.42885      182.33099      197.06683      38.563488     -32.337353     -172.65716      269.7152      -15.154842      3701792.8    
   2936000   300.04297      0.89436895     0.67722611     1.5715951      188.90351      107.38331      182.32672      621.65843      245.3941       49.045369      130.13013      203.2871       149.87897      3698512.9    
   2937000   299.36058      0.89233486     0.67835971     1.5706946      188.97445      107.43228      182.35099     -50.484998      69.845683      164.11194      130.5794      -7.5689418     -51.126562      3702081.8    
   2938000   299.96232      0.89412855     0.68056291     1.5746915      189.03645      107.41325      182.37664      17.472287      73.435221     -126.35774      151.75582      207.89642      81.395897      3703161.5    
   2939000   300.1237       0.89460959     0.67857423     1.5731838      189.15931      107.36453      182.27666      166.66637      54.877154      204.77998      152.88071      218.17412      239.52411      3701856.9    
   2940000   300.64132      0.89615252     0.68107688     1.5772294      189.05603      107.42317      182.40299      35.443988     -202.87246     -172.51454      22.434104      108.03575      6.1839652      3704422      
   2941000   300.02109      0.89430373     0.6803247      1.5746284      188.95991      107.47353      182.48243      169.79367      123.39929      83.745934     -27.39991       241.29981      23.395541      3705887.8    
   2942000   300.05785      0.89441329     0.67945297     1.5738663      189.10851      107.44594      182.52084      95.478248     -157.04414     -242.47596     -39.577496      184.2821       58.187948      3708630.1    
   2943000   300.4291       0.89551992     0.67954042     1.5750603      189.11916      107.46027      182.29311     -94.274522     -418.16039      61.276438     -111.13926      177.9486       192.37743      3704705.7    
   2944000   300.30819      0.89515951     0.67917271     1.5743322      189.02045      107.44354      182.23977      32.11782      -11.989209      62.831362      16.996208      149.44944      77.846876      3701112.1    
   2945000   300.71499      0.8963721      0.68197953     1.5783516      189.04689      107.4671       182.41982     -89.245146     -52.162594     -239.32084     -192.91825      182.17215      80.870332      3706099.8    
   2946000   300.09992      0.8945387      0.68003303     1.5745717      189.0148       107.46885      182.36092     -163.50294     -330.58919      70.925972      232.61605      121.28691     -81.891909      3704334.5    
   2947000   299.95838      0.8941168      0.67772462     1.5718414      189.00924      107.50392      182.30948     -374.1678      -446.38661      238.43896      175.98676      369.52498      61.752926      3704389      
   2948000   300.13749      0.89465068     0.67957008     1.5742208      188.97701      107.45625      182.36431     -253.31618     -193.53287      175.02734      46.913196      191.43404     -78.464201      3703228.3    
   2949000   300.56702      0.89593102     0.67804675     1.5739778      189.00287      107.44679      182.28187      94.414485      92.351753      198.12694     -9.2374097      143.17664      16.045176      3701735      
   2950000   300.19292      0.89481592     0.67896981     1.5737857      189.00414      107.42067      182.29184     -212.97757     -193.20136     -190.2206       92.40347       216.00563      21.363974      3701062.4    
   2951000   300.63637      0.89613777     0.67967696     1.5758147      189.04826      107.42945      182.34987     -430.31154     -82.899924      135.0827       56.71444       233.00653      23.267245      3703407.2    
   2952000   299.52954      0.89283851     0.67824578     1.5710843      189.06027      107.42979      182.36371     -7.7252554     -188.18629     -23.62753       8.1234112      241.00441     -118.58125      3703935.7    
   2953000   300.14909      0.89468528     0.68001551     1.5747008      188.98603      107.47797      182.47182      455.11857      76.235648     -158.41591     -38.85616       273.27216     -137.41526      3706337.7    
   2954000   299.52669      0.89283003     0.67943401     1.572264       189.01972      107.46335      182.37544      150.25837     -115.38625      58.601514      142.28223      360.1045       65.227093      3704536.1    
   2955000   299.74228      0.89347264     0.67980737     1.57328        189.0618       107.42856      182.37345      50.229058      261.98067      11.33765       87.633493      199.92078      117.76447      3704121.2    
   2956000   300.78427      0.89657862     0.67790374     1.5744824      189.05383      107.40963      182.33599      166.75263     -161.0548       91.436462      140.23643      243.33671      45.381898      3702551.3    
   2957000   299.98794      0.8942049      0.68053666     1.5747416      189.09762      107.42064      182.44423     -234.97168      297.90979     -52.47096       65.667737      321.12182      56.291398      3705987.4    
   2958000   300.75701      0.89649736     0.67819025     1.5746876      188.96996      107.42374      182.46317      177.99148      359.94696     -143.29435      9.1531809      142.8552       32.366196      3703976.8    
   2959000   300.07113      0.89445287     0.67982682     1.5742797      189.0299       107.44554      182.49754      70.381191     -226.81519     -243.22333     -64.375723     -25.132459      16.412819      3706601.7    
   2960000   300.08302      0.89448834     0.6798579      1.5743462      189.02409      107.41799      182.29352      104.38184      108.20541      111.90427      167.44001      184.54721      181.14955      3701394.8    
   2961000   300.7768       0.89655634     0.68033915     1.5768955      189.02607      107.39853      182.37953     -58.915511      273.37621      59.344148     -27.392888      191.92195      110.76757      3702509      
   2962000   300.46297      0.89562087     0.68042704     1.5760479      189.14357      107.42469      182.39778     -177.35665     -215.91138     -5.0679331      78.202835      135.15659     -57.795343      3706083.9    
   2963000   299.82793      0.89372796     0.67977136     1.5734993      189.03438      107.41476      182.37686     -215.34153     -2.6643206     -319.17163     -147.49441      191.23827      45.961388      3703177.2    
   2964000   300.73616      0.89643521     0.67853621     1.5749714      189.05069      107.43591      182.27075      179.29012      95.636495      120.63395      63.618686      264.1333       56.187633      3702070.6    
   2965000   299.71429      0.89338922     0.67970566     1.5730949      189.09463      107.4624       182.42732     -87.661411     -227.15482     -32.540505      148.26739      129.03952      52.612331      3707025.7    
   2966000   300.44216      0.89555886     0.67970199     1.5752609      189.03567      107.46273      182.43292     -38.235738     -83.302556     -165.53258      52.464761      151.65731      43.264865      3705995.3    
   2967000   300.4818       0.895677       0.68227562     1.5779526      189.02835      107.43617      182.37936     -101.63255     -6.7247532     -112.66296     -104.73341      75.207702     -78.923911      3703848.1    
   2968000   299.93468      0.89404614     0.68010127     1.5741474      189.01587      107.38567      182.48226     -175.52121      96.583388     -36.582903     -101.17891      222.01069      55.101504      3703951.3    
   2969000   299.95371      0.89410287     0.68070581     1.5748087      188.98844      107.42832      182.48495      92.843186     -60.105566     -54.909332     -190.3422       367.75924     -53.744855      3704939.1    
   2970000   300.05124      0.89439361     0.6786006      1.5729942      188.97307      107.41448      182.29699      214.65225     -147.63756      100.0269       168.34438      196.04905      164.551        3700345.1    
   2971000   299.95547      0.89410813     0.67901897     1.5731271      189.12608      107.4014       182.42132     -220.17105      293.61485     -242.97301     -90.101814      157.59457     -68.590463      3705415.8    
   2972000   299.63548      0.89315429     0.67928845     1.5724427      188.98227      107.41914      182.41562     -106.32484      78.343351      144.35309      37.839665      301.68554      113.50233      3703093.9    
   2973000   299.8505       0.89379523     0.68134744     1.5751427      189.0427       107.45632      182.44634      199.43126      201.93178     -31.548581     -126.02242      198.41641     -160.03973      3706184.7    
   2974000   299.93343      0.89404243     0.67947552     1.5735179      189.07884      107.41264      182.33342      18.59851       78.827479      98.283237      105.30676      299.63378     -38.36336       3703092.8    
   2975000   300.06808      0.8944438      0.67889419     1.573338       189.09258      107.41428      182.36726     -78.336016      213.06216     -0.58984443    -8.0604073      234.34445      82.968399      3704105.7    
   2976000   299.90833      0.8939676      0.68291563     1.5768832      189.03231      107.41926      182.56101     -26.095125      254.05861      32.251421      119.67066      218.00848     -80.160049      3707031      
   2977000   299.96454      0.89413515     0.6790884      1.5732236      189.03332      107.42144      182.41724     -30.074244     -112.22101      63.771526      34.86257       243.1164       58.601205      3704206.7    
   2978000   300.25084      0.89498856     0.67834871     1.5733373      189.17971      107.40419      182.34644     -252.47377     -291.28209     -137.2503       35.585521      235.7982      -39.681161      3705041.5    
   2979000   299.96496      0.89413642     0.68019622     1.5743326      189.13495      107.40505      182.43306      143.82435      193.69251      58.376677     -27.344577      312.9575       195.8813       3705954.3    
   2980000   300.14155      0.89466279     0.68008602     1.5747488      189.04723      107.47259      182.42408      86.510439      11.302947      94.139246      225.35183      127.07541      63.750236      3706382      
   2981000   300.32745      0.89521693     0.68057222     1.5757891      189.01514      107.40743      182.3925      -155.52654      60.298427      181.78257      70.390678      169.96332      41.778319      3702865.2    
   2982000   299.43688      0.8925623      0.68043382     1.5729961      189.09001      107.42803      182.41567      69.991077      93.208607      54.261228      5.0533942      229.51514     -40.133199      3705512.9    
   2983000   299.2653       0.89205087     0.67811842     1.5701693      189.07622      107.40934      182.48311     -100.33209      100.81041     -167.97093      81.401666      302.47527      104.62318      3705967.6    
   2984000   300.46222      0.89561865     0.67870264     1.5743213      189.00312      107.352        182.43122      247.91903      203.87062     -31.509085     -66.177578      187.59526     -38.629586      3701504.5    
   2985000   300.03308      0.89433946     0.68061592     1.5749554      189.10639      107.44669      182.35418     -101.84395     -132.55526     -34.688685     -152.64634      341.57473      92.264918      3705228.3    
   2986000   299.3812       0.89239635     0.68172317     1.5741195      189.01349      107.47869      182.39473     -362.64666     -245.89814      111.95735     -246.38472      259.95385      5.8486649      3705334.8    
   2987000   299.47149      0.89266548     0.68115254     1.573818       189.04641      107.478        182.45657     -162.11007     -197.59079     -225.73713      153.28146      330.94507      89.383052      3707212.8    
   2988000   299.70263      0.89335446     0.68053636     1.5738908      189.09412      107.47127      182.49198     -167.83036      191.84885     -39.934039     -135.64027      210.88475      79.245056      3708636      
   2989000   300.04503      0.8943751      0.67948448     1.5738596      189.07389      107.43139      182.29144     -226.46942     -20.108036     -71.934165      2.5663025      183.80034      26.429919      3702789.7    
   2990000   300.121        0.89460153     0.68063021     1.5752317      189.13745      107.41686      182.40985     -94.338617     -41.816555     -141.36299      83.065708      329.3257       109.94719      3705938.9    
   2991000   299.98054      0.89418286     0.68289221     1.5770751      189.12889      107.40052      182.46295      429.12826     -102.46952      23.549795     -111.38623      181.88747      81.286622      3706286.4    
   2992000   300.2849       0.8950901      0.68053388     1.575624       189.06295      107.42336      182.44224      108.10501      277.706        29.07918      -41.24515       120.09353      39.459477      3705361.2    
   2993000   299.4611       0.8926345      0.68213811     1.5747726      189.13907      107.42282      182.38218      201.04624     -167.6608       7.1324128      39.548613      312.80178      1.6881707      3705614      
   2994000   300.21685      0.89488726     0.68086328     1.5757505      189.13313      107.45475      182.4149      -281.62779      91.369993      63.043754      166.75588      220.25215      29.958441      3707264.3    
   2995000   299.56887      0.89295575     0.68174061     1.5746964      189.06551      107.44914      182.43147      55.667373      42.689737     -58.14588      -26.309214      213.08102      68.023328      3706081.9    
   2996000   300.62367      0.89609991     0.6793189      1.5754188      189.10486      107.45176      182.47314     -72.491211      17.794168     -147.89987      12.099059      366.14566      28.248838      3707790.2    
   2997000   299.70814      0.89337088     0.68153841     1.5749093      189.02331      107.44242      182.32972     -265.73517     -27.475063     -74.05963       138.77335      416.33015      5.8554405      3702956.4    
   2998000   300.13548      0.8946447      0.67977249     1.5744172      188.94693      107.44672      182.28748     -46.797435     -91.004867     -144.1124       52.722839      260.94781      67.001446      3700750.9    
   2999000   300.07013      0.8944499      0.68068752     1.5751374      189.04869      107.42845      182.40177     -36.20131      -150.18002     -100.68657     -100.29222      275.69713     -31.37006       3704435.4    
   3000000   299.8318       0.8937395      0.67961907     1.5733586      189.0613       107.47787      182.40257     -3.460294      -59.094792     -91.797242      262.09463      269.59436     -120.05684      3706403.1    
Loop time of 23491 on 256 procs for 1500000 steps with 414720 atoms

Performance: 5.517 ns/day, 4.350 hours/ns, 63.854 timesteps/s, 26.482 Matom-step/s
99.4% CPU use with 256 MPI tasks x no OpenMP threads

MPI task timing breakdown:
Section |  min time  |  avg time  |  max time  |%varavg| %total
---------------------------------------------------------------
Pair    | 10216      | 10406      | 10581      |  69.9 | 44.30
Bond    | 455.36     | 464.64     | 482.46     |  18.6 |  1.98
Kspace  | 3271.9     | 3587.7     | 3814       | 212.2 | 15.27
Neigh   | 5123.7     | 5269.5     | 5379.4     | 105.6 | 22.43
Comm    | 2178.4     | 2526.8     | 3085.9     | 503.8 | 10.76
Output  | 1.0907     | 4.0962     | 4.3487     |  11.7 |  0.02
Modify  | 911.25     | 1102.7     | 1245.8     | 287.8 |  4.69
Other   |            | 130        |            |       |  0.55

Nlocal:           1620 ave        1641 max        1595 min
Histogram: 4 7 10 34 40 59 58 22 15 7
Nghost:         8435.6 ave        8513 max        8356 min
Histogram: 8 12 23 28 51 51 40 22 16 5
Neighs:         381846 ave      390701 max      373064 min
Histogram: 4 7 22 43 57 56 35 21 9 2

Total # of neighbors = 97752579
Ave neighs/atom = 235.70741
Ave special neighs/atom = 9.4
Neighbor list builds = 206834
Dangerous builds = 17
unfix           4

unfix           7  # box_parameters.dat
unfix           6  # center.dat
unfix           2  # output.dat
unfix           1
#======================NPT equilibration
fix             5 all nph tri ${patm} ${patm} ${pdamp} fixedpoint ${xcm} ${ycm} ${zcm} flip no
fix             5 all nph tri 1 ${patm} ${pdamp} fixedpoint ${xcm} ${ycm} ${zcm} flip no
fix             5 all nph tri 1 1 ${pdamp} fixedpoint ${xcm} ${ycm} ${zcm} flip no
fix             5 all nph tri 1 1 1000 fixedpoint ${xcm} ${ycm} ${zcm} flip no
fix             5 all nph tri 1 1 1000 fixedpoint 85.0319298487495 ${ycm} ${zcm} flip no
fix             5 all nph tri 1 1 1000 fixedpoint 85.0319298487495 49.3171275491764 ${zcm} flip no
fix             5 all nph tri 1 1 1000 fixedpoint 85.0319298487495 49.3171275491764 86.2722299428466 flip no
run             ${trelax}
run             50000
PPPM initialization ...
  using 12-bit tables for long-range coulomb (../kspace.cpp:342)
  G vector (1/distance) = 0.29202899
  grid = 32 32 60
  stencil order = 6
  estimated absolute RMS force accuracy = 3.4844243
  estimated relative force accuracy = 0.01049324
  using double precision KISS FFT
  3d grid and FFT values/proc = 2310 256
Generated 3 of 3 mixed pair_coeff terms from arithmetic mixing rule
Per MPI rank memory allocation (min/avg/max) = 18.44 | 18.45 | 18.45 Mbytes
   Step          Temp          KinEng         PotEng         TotEng           Lx             Ly             Lz            Pxx            Pyy            Pzz            Pxy            Pxz            Pyz           Volume    
   3000000   299.8318       0.8937395      0.67961908     1.5733586      189.0613       107.47787      182.40257     -3.4605896     -59.092086     -91.796998      262.09735      269.71297     -120.05629      3706403.1    
   3001000   300.34227      0.89526108     0.68085049     1.5761116      189.0816       107.4331       182.34258     -51.037623      17.172945     -49.197479      200.63359      217.08353      107.00923      3704038.2    
   3002000   299.98082      0.89418369     0.68052511     1.5747088      189.03651      107.42359      182.28402      381.06089      189.30497      49.271505      30.168938      209.71993     -89.482676      3701637.9    
   3003000   299.86803      0.89384748     0.67966129     1.5735088      189.01131      107.42197      182.27705      301.57946      199.26073      248.7872      -161.65901      115.14443      85.272701      3700947.2    
   3004000   300.54101      0.89585349     0.67925961     1.5751131      189.00683      107.42584      182.30607     -95.818824      33.707328      122.03595     -74.339375      140.77715      117.10314      3701582      
   3005000   300.69168      0.89630262     0.67814803     1.5744507      188.9286       107.45109      182.25189      25.257191      280.81042      211.48639     -40.463047      124.00189     -77.55559       3699819.9    
   3006000   299.93323      0.89404184     0.67944643     1.5734883      188.91552      107.44146      182.23678     -8.7143043      151.34796      75.516633      95.246747      117.60803      50.284222      3698925.3    
   3007000   301.04493      0.89735557     0.67714103     1.5744966      188.98665      107.44671      182.30989      175.07233      264.74058      32.768471     -69.622742     -51.091246     -83.084258      3701983.5    
   3008000   299.94819      0.89408641     0.67703227     1.5711187      188.83678      107.41212      182.16478     -384.15266     -266.52486      37.098238      135.65677      232.57827     -12.013077      3694913.7    
   3009000   300.05863      0.89441564     0.67790805     1.5723237      188.90879      107.45377      182.24442     -124.17959      187.15089      81.810253      7.6891362      41.639426     -14.579051      3699372.4    
   3010000   300.37611      0.89536196     0.67992174     1.5752837      188.89247      107.4449       182.1755       152.38069     -137.97728      78.032628     -20.518577     -72.33923       10.39281       3697348.9    
   3011000   299.53177      0.89284515     0.67772858     1.5705737      188.89921      107.46597      182.09009      67.073253      135.37613      45.344242     -26.327017      50.872961     -38.634699      3696472      
   3012000   299.32717      0.89223528     0.68000321     1.5722385      188.88459      107.52178      182.20437      58.938408     -121.42563      17.45663       79.24496       22.237428     -134.90173      3700426.2    
   3013000   300.20299      0.89484592     0.67617144     1.5710174      188.82768      107.48729      182.13601      7.7394502     -47.798322      34.257809      54.460815      110.91408     -63.35646       3696737.4    
   3014000   300.70111      0.89633073     0.6764716      1.5728023      188.79025      107.51048      182.09326      427.89812      233.50444      59.824306      17.745206     -18.172025      64.200096      3695934.3    
   3015000   300.96438      0.8971155      0.67569547     1.572811       188.84309      107.48699      182.10702     -91.00104      -250.50883     -22.886788      154.3842      -93.707578     -27.015962      3696440.1    
   3016000   299.74124      0.89346956     0.67711677     1.5705863      188.84763      107.47164      182.27646     -238.72845     -10.992218     -174.34567     -142.28503     -193.95933      36.667783      3699440.2    
   3017000   299.8503       0.89379462     0.67883869     1.5726333      188.92043      107.44837      182.26532      111.73212     -190.83301     -130.45625      102.3614       42.936283     -3.7418138      3699839      
   3018000   299.87498      0.89386819     0.67902201     1.5728902      188.87888      107.50665      182.09284      337.58535      264.06878      277.42182      21.969676      80.841088      11.186592      3697529      
   3019000   300.5113       0.89576496     0.67451995     1.5702849      188.84008      107.4804       182.18653     -222.10093      273.27372      20.346055     -14.009654      83.516617      169.31331      3697768.7    
   3020000   299.58391      0.89300058     0.67748455     1.5704851      188.7517       107.46151      182.12885      283.48989     -131.9419      -85.129187     -57.607516      49.843535      22.281422      3694218      
   3021000   300.09265      0.89451702     0.67807446     1.5725915      188.94456      107.47796      182.0834       208.78206      132.26439     -5.0064681      114.42217      81.877471     -97.59247       3697635.8    
   3022000   300.15981      0.89471723     0.67595885     1.5706761      188.81146      107.49903      182.07625     -166.78464     -122.05967      54.402141     -87.324019      104.96122     -103.29786      3695610.5    
   3023000   300.79131      0.8965996      0.67695826     1.5735579      188.78144      107.54472      182.13718     -211.1491      -493.41206     -109.43179      31.222822     -17.531271     -52.542909      3697830.6    
   3024000   299.99933      0.89423886     0.67845912     1.572698       188.89447      107.49023      182.16143     -15.108901      121.78494      0.58935712     36.738638      36.468294      21.315365      3698661.8    
   3025000   299.34151      0.89227803     0.67710127     1.5693793      188.8619       107.50269      182.15286     -59.092027      86.904086      58.687925     -226.82847     -104.59872     -73.425955      3698279.3    
   3026000   299.36137      0.89233724     0.67775574     1.570093       188.90531      107.48793      182.10177     -53.954468      53.107453      71.47719      -58.768944      78.628511     -106.60121      3697583.9    
   3027000   299.78345      0.89359536     0.67837816     1.5719735      188.79299      107.47507      182.06584      38.721734      95.345247      116.39273     -221.31336      48.894045      58.840816      3694214.1    
   3028000   299.80925      0.89367228     0.67850679     1.5721791      188.7669       107.47629      182.01886      6.0965506     -72.682999      177.75823     -24.957962      79.290445     -70.508419      3692792.4    
   3029000   300.17419      0.89476009     0.67767801     1.5724381      188.72366      107.48931      182.05516      275.87221     -45.832898      16.267393     -140.14179     -25.215587      25.524534      3693130      
   3030000   300.33206      0.89523066     0.67717163     1.5724023      188.8045       107.46804      182.16711      340.45649     -121.51513      11.003153      39.536633     -53.759474     -94.018805      3696252.4    
   3031000   299.93341      0.89404236     0.67788301     1.5719254      188.79862      107.46747      182.14221      57.900676      14.474155     -108.02939      57.642426      81.213382      28.664659      3695612.6    
   3032000   299.87006      0.89385353     0.67721711     1.5710706      188.80945      107.50369      182.1074       167.49969      176.73261      10.767229     -7.7078055      18.02217      -22.107178      3696363.8    
   3033000   300.32345      0.89520499     0.67732959     1.5725346      188.79493      107.47869      182.12242     -91.174302     -233.60773      95.736853      7.5408649      10.454084      43.832904      3695524.7    
   3034000   300.25749      0.89500838     0.677307       1.5723154      188.75101      107.50813      182.13468     -275.4632      -100.63529     -17.188972      159.83176      147.28192      93.804713      3695925.8    
   3035000   300.30595      0.89515283     0.67538698     1.5705398      188.85479      107.46814      182.06096      192.24653      229.81979     -15.244417      59.587879     -27.056735     -58.981853      3695086.1    
   3036000   300.40766      0.89545601     0.67806252     1.5735185      188.8445       107.43999      182.04206     -9.4497231     -234.81915     -60.832561     -3.091359       182.14684     -12.103136      3693533.7    
   3037000   300.09618      0.89452755     0.67805041     1.572578       188.84759      107.49735      182.09881     -57.77169       107.87663      70.327532     -229.60867     -176.68721     -13.161751      3696717.8    
   3038000   299.60817      0.89307288     0.67913728     1.5722102      188.82199      107.49832      182.18467     -41.524876     -152.39273     -156.55611     -121.22839      32.12722       145.50078      3697992.9    
   3039000   299.96328      0.8941314      0.67700204     1.5711334      188.86326      107.43676      182.12618     -66.782858      80.001771      265.49718     -2.6761453      30.926128     -44.719775      3695496.4    
   3040000   299.38544      0.89240897     0.67960998     1.5720189      188.88414      107.46708      182.14491     -73.34623      -258.35077     -172.66663      19.543568      75.482213     -116.40929      3697327.9    
   3041000   300.5319       0.89582634     0.67636785     1.5721942      188.93524      107.45629      182.14872     -316.81722     -33.192451     -39.576872      227.56379      149.37689     -18.11542       3698034.2    
   3042000   300.19958      0.89483577     0.67869666     1.5735324      188.92835      107.45676      182.12553     -118.70842     -210.80115     -120.066       -18.965989      4.7600891      55.839587      3697445      
   3043000   299.73938      0.893464       0.67596726     1.5694313      188.78044      107.47752      181.9864      -130.2932       200.3363      -298.3892      -173.93706      12.603442     -25.884219      3692441      
   3044000   300.71065      0.89635916     0.67703369     1.5733928      188.83732      107.5015       182.16567      7.1158849      87.700858     -71.455989      166.43817      24.417859      65.059633      3698016.8    
   3045000   300.43227      0.89552936     0.67712437     1.5726537      188.87393      107.51259      182.1936       72.262615     -320.75615     -162.76702      28.206218     -123.41039      90.731142      3699682.4    
   3046000   300.12576      0.89461573     0.67821885     1.5728346      188.78663      107.47311      182.22921      94.263596     -0.00059496444 -258.25789     -58.099516     -71.959528      7.1901526      3697337.3    
   3047000   300.39703      0.89542432     0.67851339     1.5739377      188.80076      107.51503      182.15261     -34.099975     -237.78345     -0.80054067    -152.26977     -74.610288     -17.103693      3697501.1    
   3048000   299.92277      0.89401066     0.6774172      1.5714279      188.79939      107.4861       181.97867      255.96845     -74.414455     -214.94974      26.333429      44.89658       71.977269      3692949.6    
   3049000   299.93475      0.89404636     0.67711298     1.5711593      188.80141      107.48883      182.19926      266.40793     -132.38828     -30.00416       32.255398     -40.198801      131.02149      3697559.7    
   3050000   299.92942      0.89403047     0.67467589     1.5687064      188.80313      107.47961      182.25949     -144.06225     -60.013086     -197.75721     -62.207831      35.037285     -99.860749      3698498.2    
Loop time of 780.471 on 256 procs for 50000 steps with 414720 atoms

Performance: 5.535 ns/day, 4.336 hours/ns, 64.064 timesteps/s, 26.569 Matom-step/s
99.4% CPU use with 256 MPI tasks x no OpenMP threads

MPI task timing breakdown:
Section |  min time  |  avg time  |  max time  |%varavg| %total
---------------------------------------------------------------
Pair    | 337.02     | 343.44     | 350.37     |  12.5 | 44.00
Bond    | 15.134     | 15.458     | 16.101     |   3.7 |  1.98
Kspace  | 114.93     | 126.24     | 134.4      |  37.2 | 16.18
Neigh   | 171.88     | 176.76     | 180.34     |  19.2 | 22.65
Comm    | 71.917     | 84.07      | 101.92     |  92.0 | 10.77
Output  | 0.088662   | 0.1047     | 0.12021    |   2.2 |  0.01
Modify  | 23.132     | 30.086     | 34.674     |  57.6 |  3.85
Other   |            | 4.307      |            |       |  0.55

Nlocal:           1620 ave        1648 max        1593 min
Histogram: 2 6 19 36 73 55 44 14 4 3
Nghost:        8416.16 ave        8518 max        8320 min
Histogram: 8 16 27 31 48 55 34 22 10 5
Neighs:         382626 ave      393519 max      371743 min
Histogram: 1 2 16 47 56 77 35 17 4 1

Total # of neighbors = 97952175
Ave neighs/atom = 236.18869
Ave special neighs/atom = 9.4
Neighbor list builds = 6924
Dangerous builds = 0
unfix           5
######################################
# SIMULATION DONE
Total wall time: 13:31:21
